LAMMPS data file. CGCMM style. atom_style charge generated by VMD/TopoTools v1.8 on Thu May 28 16:51:23 +0800 2026
 450 atoms
 0 bonds
 0 angles
 0 dihedrals
 0 impropers
 3 atom types
 0 bond types
 0 angle types
 0 dihedral types
 0 improper types
 -0.609499 28.610500  xlo xhi
 -0.600500 28.599501  ylo yhi
 -0.595500 28.604501  zlo zhi

# Pair Coeffs
#
# 1  C
# 2  H
# 3  O

 Masses

 1 12.010700 # C
 2 1.007940 # H
 3 15.999400 # O

 Atoms # charge

1 1 0.000000 24.320999 17.354000 4.732000 # C
2 2 0.000000 24.625999 16.329000 4.677000 # H
3 2 0.000000 24.480000 17.719000 5.726000 # H
4 2 0.000000 24.898001 17.934000 4.042000 # H
5 2 0.000000 23.283001 17.431999 4.485000 # H
6 1 0.000000 24.198999 3.922000 21.738001 # C
7 2 0.000000 23.357000 4.505000 22.048000 # H
8 2 0.000000 24.083000 2.916000 22.086000 # H
9 2 0.000000 24.261999 3.926000 20.670000 # H
10 2 0.000000 25.094000 4.341000 22.150000 # H
11 1 0.000000 25.094999 20.077999 11.964000 # C
12 2 0.000000 24.766001 20.841999 11.290000 # H
13 2 0.000000 25.622000 20.525999 12.781000 # H
14 2 0.000000 24.247000 19.542999 12.336000 # H
15 2 0.000000 25.745001 19.403000 11.447000 # H
16 1 0.000000 23.148001 16.408001 22.420000 # C
17 2 0.000000 23.851000 17.212999 22.351999 # H
18 2 0.000000 23.278999 15.750000 21.586000 # H
19 2 0.000000 23.311001 15.869000 23.329000 # H
20 2 0.000000 22.153999 16.802000 22.410999 # H
21 1 0.000000 25.976000 27.146000 17.388000 # C
22 2 0.000000 25.052999 27.684999 17.332001 # H
23 2 0.000000 26.358999 27.198000 18.386999 # H
24 2 0.000000 25.808001 26.122999 17.122999 # H
25 2 0.000000 26.684000 27.579000 16.712000 # H
26 1 0.000000 5.694000 22.974001 6.207000 # C
27 2 0.000000 5.293000 22.056999 5.826000 # H
28 2 0.000000 6.305000 22.767000 7.061000 # H
29 2 0.000000 6.285000 23.445999 5.450000 # H
30 2 0.000000 4.892000 23.622999 6.491000 # H
31 1 0.000000 0.958000 17.822001 25.056000 # C
32 2 0.000000 0.283000 18.636000 25.224001 # H
33 2 0.000000 1.248000 17.400000 25.996000 # H
34 2 0.000000 0.474000 17.073999 24.462999 # H
35 2 0.000000 1.826000 18.179001 24.542000 # H
36 1 0.000000 6.919000 14.703000 12.625000 # C
37 2 0.000000 6.284000 14.948000 11.798000 # H
38 2 0.000000 7.856000 15.208000 12.515000 # H
39 2 0.000000 6.451000 15.011000 13.536000 # H
40 2 0.000000 7.083000 13.646000 12.647000 # H
41 1 0.000000 19.330000 12.917000 4.344000 # C
42 2 0.000000 20.259001 12.653000 3.884000 # H
43 2 0.000000 19.056000 13.909000 4.049000 # H
44 2 0.000000 18.570999 12.230000 4.033000 # H
45 2 0.000000 19.434000 12.877000 5.408000 # H
46 1 0.000000 13.300000 13.702000 19.660999 # C
47 2 0.000000 12.664000 12.855000 19.819000 # H
48 2 0.000000 14.265000 13.504000 20.077999 # H
49 2 0.000000 13.394000 13.885000 18.611000 # H
50 2 0.000000 12.874000 14.560000 20.136999 # H
51 1 0.000000 18.061001 0.918000 23.316999 # C
52 2 0.000000 18.309999 1.820000 22.798000 # H
53 2 0.000000 17.865000 0.141000 22.608000 # H
54 2 0.000000 18.879000 0.631000 23.945000 # H
55 2 0.000000 17.190001 1.081000 23.917999 # H
56 1 0.000000 17.063999 9.839000 3.208000 # C
57 2 0.000000 17.222000 9.052000 3.916000 # H
58 2 0.000000 16.850000 10.749000 3.730000 # H
59 2 0.000000 17.945000 9.966000 2.614000 # H
60 2 0.000000 16.239000 9.589000 2.575000 # H
61 1 0.000000 15.886000 21.936001 1.090000 # C
62 2 0.000000 15.064000 21.353001 0.730000 # H
63 2 0.000000 16.246000 21.517000 2.007000 # H
64 2 0.000000 16.672001 21.930000 0.363000 # H
65 2 0.000000 15.564000 22.941999 1.259000 # H
66 1 0.000000 26.044001 9.532000 15.511000 # C
67 2 0.000000 25.079000 9.964000 15.346000 # H
68 2 0.000000 25.930000 8.569000 15.964000 # H
69 2 0.000000 26.552999 9.428000 14.575000 # H
70 2 0.000000 26.613001 10.166000 16.158001 # H
71 1 0.000000 11.983000 15.007000 0.983000 # C
72 2 0.000000 11.374000 14.130000 1.055000 # H
73 2 0.000000 11.363000 15.877000 1.042000 # H
74 2 0.000000 12.690000 15.016000 1.787000 # H
75 2 0.000000 12.505000 15.003000 0.049000 # H
76 1 0.000000 5.129000 26.242001 8.348000 # C
77 2 0.000000 6.118000 25.874001 8.528000 # H
78 2 0.000000 4.891000 26.990999 9.074000 # H
79 2 0.000000 5.081000 26.667000 7.367000 # H
80 2 0.000000 4.429000 25.437000 8.423000 # H
81 1 0.000000 4.260000 18.094000 3.390000 # C
82 2 0.000000 4.359000 18.266001 2.338000 # H
83 2 0.000000 4.056000 19.021000 3.885000 # H
84 2 0.000000 3.455000 17.410999 3.565000 # H
85 2 0.000000 5.170000 17.677999 3.771000 # H
86 1 0.000000 27.037001 21.625000 21.733999 # C
87 2 0.000000 26.843000 22.148001 20.820999 # H
88 2 0.000000 27.055000 22.322001 22.547001 # H
89 2 0.000000 26.266001 20.902000 21.900999 # H
90 2 0.000000 27.983000 21.129999 21.667999 # H
91 1 0.000000 20.098000 25.455999 5.013000 # C
92 2 0.000000 19.096001 25.787001 5.192000 # H
93 2 0.000000 20.410999 25.775999 4.041000 # H
94 2 0.000000 20.747999 25.875000 5.753000 # H
95 2 0.000000 20.136999 24.388000 5.067000 # H
96 1 0.000000 11.320000 0.828000 6.095000 # C
97 2 0.000000 12.002000 0.070000 5.770000 # H
98 2 0.000000 10.776000 1.203000 5.253000 # H
99 2 0.000000 10.636000 0.410000 6.804000 # H
100 2 0.000000 11.865000 1.627000 6.553000 # H
101 1 0.000000 8.490000 18.139000 6.576000 # C
102 2 0.000000 7.787000 17.509001 6.071000 # H
103 2 0.000000 9.280000 17.539000 6.977000 # H
104 2 0.000000 8.895000 18.847000 5.884000 # H
105 2 0.000000 7.998000 18.658001 7.371000 # H
106 1 0.000000 6.525000 11.293000 19.273001 # C
107 2 0.000000 5.534000 11.570000 19.566999 # H
108 2 0.000000 6.899000 10.546000 19.941999 # H
109 2 0.000000 6.506000 10.903000 18.277000 # H
110 2 0.000000 7.161000 12.153000 19.308001 # H
111 1 0.000000 3.179000 5.373000 4.855000 # C
112 2 0.000000 2.684000 6.293000 4.621000 # H
113 2 0.000000 2.501000 4.725000 5.370000 # H
114 2 0.000000 3.504000 4.903000 3.950000 # H
115 2 0.000000 4.026000 5.571000 5.479000 # H
116 1 0.000000 11.795000 15.560000 9.733000 # C
117 2 0.000000 12.533000 15.660000 8.965000 # H
118 2 0.000000 11.010000 16.268999 9.568000 # H
119 2 0.000000 11.391000 14.569000 9.713000 # H
120 2 0.000000 12.245000 15.742000 10.687000 # H
121 1 0.000000 24.229000 26.608000 2.055000 # C
122 2 0.000000 24.730000 27.549000 1.959000 # H
123 2 0.000000 24.837000 25.834999 1.633000 # H
124 2 0.000000 24.056999 26.400999 3.091000 # H
125 2 0.000000 23.292999 26.646999 1.539000 # H
126 1 0.000000 6.176000 24.681000 18.881001 # C
127 2 0.000000 6.776000 24.047001 18.261000 # H
128 2 0.000000 5.337000 25.035999 18.320000 # H
129 2 0.000000 5.831000 24.125999 19.728001 # H
130 2 0.000000 6.761000 25.513000 19.212999 # H
131 1 0.000000 12.787000 11.717000 0.663000 # C
132 2 0.000000 12.883000 10.729000 1.063000 # H
133 2 0.000000 12.719000 12.422000 1.466000 # H
134 2 0.000000 13.643000 11.942000 0.061000 # H
135 2 0.000000 11.904000 11.774000 0.062000 # H
136 1 0.000000 18.604000 3.454000 9.373000 # C
137 2 0.000000 18.827000 3.378000 10.417000 # H
138 2 0.000000 19.473000 3.198000 8.803000 # H
139 2 0.000000 17.806999 2.782000 9.130000 # H
140 2 0.000000 18.308001 4.456000 9.143000 # H
141 1 0.000000 9.116000 11.375000 6.298000 # C
142 2 0.000000 10.106000 11.409000 6.703000 # H
143 2 0.000000 8.492000 12.068000 6.823000 # H
144 2 0.000000 9.147000 11.637000 5.261000 # H
145 2 0.000000 8.720000 10.386000 6.404000 # H
146 1 0.000000 3.600000 1.158000 26.941999 # C
147 2 0.000000 2.873000 0.451000 26.600000 # H
148 2 0.000000 3.442000 2.096000 26.452000 # H
149 2 0.000000 3.501000 1.287000 28.000000 # H
150 2 0.000000 4.582000 0.798000 26.716000 # H
151 1 0.000000 2.332000 21.247999 18.865999 # C
152 2 0.000000 2.485000 21.674000 19.836000 # H
153 2 0.000000 1.991000 22.007000 18.194000 # H
154 2 0.000000 3.254000 20.840000 18.507000 # H
155 2 0.000000 1.598000 20.471001 18.929001 # H
156 1 0.000000 12.241000 9.617000 5.608000 # C
157 2 0.000000 12.723000 10.518000 5.925000 # H
158 2 0.000000 12.536000 9.390000 4.604000 # H
159 2 0.000000 12.527000 8.813000 6.255000 # H
160 2 0.000000 11.180000 9.746000 5.648000 # H
161 1 0.000000 10.946000 9.123000 12.968000 # C
162 2 0.000000 11.728000 9.788000 13.271000 # H
163 2 0.000000 10.627000 8.542000 13.808000 # H
164 2 0.000000 10.120000 9.691000 12.592000 # H
165 2 0.000000 11.309000 8.471000 12.201000 # H
166 1 0.000000 13.756000 3.852000 8.953000 # C
167 2 0.000000 14.505000 4.272000 9.592000 # H
168 2 0.000000 12.848000 3.725000 9.504000 # H
169 2 0.000000 13.583000 4.510000 8.127000 # H
170 2 0.000000 14.089000 2.902000 8.589000 # H
171 1 0.000000 18.013000 9.521000 18.351999 # C
172 2 0.000000 17.198000 10.212000 18.292999 # H
173 2 0.000000 18.641001 9.636000 17.493000 # H
174 2 0.000000 18.580999 9.714000 19.238001 # H
175 2 0.000000 17.632000 8.522000 18.382999 # H
176 1 0.000000 13.312000 6.313000 26.698999 # C
177 2 0.000000 12.545000 5.667000 26.327000 # H
178 2 0.000000 13.707000 5.909000 27.608999 # H
179 2 0.000000 14.095000 6.391000 25.974001 # H
180 2 0.000000 12.902000 7.283000 26.888000 # H
181 1 0.000000 16.466000 11.086000 26.336000 # C
182 2 0.000000 17.510000 11.256000 26.500999 # H
183 2 0.000000 15.909000 11.934000 26.677000 # H
184 2 0.000000 16.290001 10.940000 25.291000 # H
185 2 0.000000 16.156000 10.216000 26.875999 # H
186 1 0.000000 2.598000 14.592000 20.993000 # C
187 2 0.000000 3.546000 15.073000 20.870001 # H
188 2 0.000000 2.206000 14.821000 21.962000 # H
189 2 0.000000 1.920000 14.942000 20.242001 # H
190 2 0.000000 2.719000 13.533000 20.898001 # H
191 1 0.000000 1.696000 27.292000 17.459999 # C
192 2 0.000000 2.646000 27.693001 17.745001 # H
193 2 0.000000 1.584000 26.312000 17.875999 # H
194 2 0.000000 0.916000 27.927000 17.827000 # H
195 2 0.000000 1.637000 27.235001 16.393000 # H
196 1 0.000000 27.334999 8.433000 2.322000 # C
197 2 0.000000 27.940001 8.592000 1.454000 # H
198 2 0.000000 26.895000 7.458000 2.276000 # H
199 2 0.000000 27.943001 8.509000 3.199000 # H
200 2 0.000000 26.561001 9.172000 2.358000 # H
201 1 0.000000 24.966000 18.721001 17.450001 # C
202 2 0.000000 24.280001 19.513000 17.232000 # H
203 2 0.000000 25.857000 19.129000 17.879000 # H
204 2 0.000000 24.514999 18.040001 18.142000 # H
205 2 0.000000 25.209999 18.202000 16.546000 # H
206 1 0.000000 8.538000 9.949000 2.991000 # C
207 2 0.000000 8.729000 8.897000 3.041000 # H
208 2 0.000000 8.036000 10.176000 2.073000 # H
209 2 0.000000 7.921000 10.238000 3.816000 # H
210 2 0.000000 9.464000 10.482000 3.032000 # H
211 1 0.000000 19.812000 11.808000 15.598000 # C
212 2 0.000000 19.840000 12.533000 14.811000 # H
213 2 0.000000 20.562000 11.064000 15.424000 # H
214 2 0.000000 19.999001 12.292000 16.534000 # H
215 2 0.000000 18.848000 11.345000 15.622000 # H
216 1 0.000000 1.766000 20.153999 8.111000 # C
217 2 0.000000 0.879000 20.750000 8.182000 # H
218 2 0.000000 2.131000 19.938999 9.093000 # H
219 2 0.000000 1.540000 19.239000 7.605000 # H
220 2 0.000000 2.512000 20.690001 7.562000 # H
221 1 0.000000 0.592000 5.890000 13.805000 # C
222 2 0.000000 1.484000 5.546000 13.323000 # H
223 2 0.000000 0.019000 6.477000 13.118000 # H
224 2 0.000000 0.014000 5.049000 14.126000 # H
225 2 0.000000 0.854000 6.488000 14.654000 # H
226 1 0.000000 20.702999 12.676000 10.385000 # C
227 2 0.000000 21.327000 13.487000 10.701000 # H
228 2 0.000000 19.989000 13.033000 9.673000 # H
229 2 0.000000 21.308001 11.917000 9.935000 # H
230 2 0.000000 20.191000 12.269000 11.232000 # H
231 1 0.000000 18.018999 20.943001 11.678000 # C
232 2 0.000000 18.760000 20.865999 12.447000 # H
233 2 0.000000 18.408001 21.520000 10.865000 # H
234 2 0.000000 17.763000 19.964001 11.331000 # H
235 2 0.000000 17.146000 21.422001 12.070000 # H
236 1 0.000000 23.789000 9.850000 0.628000 # C
237 2 0.000000 23.306999 10.628000 0.073000 # H
238 2 0.000000 23.329000 8.912000 0.399000 # H
239 2 0.000000 24.825001 9.814000 0.364000 # H
240 2 0.000000 23.694000 10.048000 1.676000 # H
241 1 0.000000 11.526000 15.597000 22.304001 # C
242 2 0.000000 10.462000 15.710000 22.326000 # H
243 2 0.000000 11.917000 16.079000 21.431999 # H
244 2 0.000000 11.950000 16.042999 23.179001 # H
245 2 0.000000 11.774000 14.556000 22.277000 # H
246 1 0.000000 19.384001 14.514000 20.139000 # C
247 2 0.000000 18.822001 14.720000 21.025999 # H
248 2 0.000000 18.712999 14.274000 19.340000 # H
249 2 0.000000 19.959000 15.377000 19.874001 # H
250 2 0.000000 20.040001 13.688000 20.315001 # H
251 3 0.000000 23.194000 22.958000 16.492001 # O
252 3 0.000000 22.134001 22.652000 16.855000 # O
253 3 0.000000 17.252001 9.592000 10.855000 # O
254 3 0.000000 17.145000 8.574000 10.308000 # O
255 3 0.000000 2.077000 14.721000 27.694000 # O
256 3 0.000000 1.055000 14.329000 27.306999 # O
257 3 0.000000 24.329000 13.597000 26.327000 # O
258 3 0.000000 24.820000 14.093000 27.254000 # O
259 3 0.000000 4.565000 27.995001 11.238000 # O
260 3 0.000000 4.146000 27.216999 11.991000 # O
261 3 0.000000 24.378000 22.945999 8.063000 # O
262 3 0.000000 25.271000 23.624001 8.364000 # O
263 3 0.000000 7.953000 22.858999 12.008000 # O
264 3 0.000000 9.050000 22.492001 12.104000 # O
265 3 0.000000 19.424000 5.834000 21.655001 # O
266 3 0.000000 18.277000 5.829000 21.474001 # O
267 3 0.000000 15.285000 13.534000 22.506001 # O
268 3 0.000000 16.400999 13.476000 22.190001 # O
269 3 0.000000 17.450001 23.726999 19.163000 # O
270 3 0.000000 18.296000 23.098000 18.677000 # O
271 3 0.000000 13.692000 24.792999 16.125000 # O
272 3 0.000000 12.906000 23.983999 16.402000 # O
273 3 0.000000 4.520000 0.963000 9.509000 # O
274 3 0.000000 3.920000 1.265000 8.561000 # O
275 3 0.000000 26.934000 3.526000 5.269000 # O
276 3 0.000000 25.809000 3.806000 5.199000 # O
277 3 0.000000 6.838000 3.437000 15.263000 # O
278 3 0.000000 7.129000 4.406000 15.832000 # O
279 3 0.000000 20.764000 1.837000 15.868000 # O
280 3 0.000000 20.059000 2.063000 16.763000 # O
281 3 0.000000 14.821000 4.494000 5.060000 # O
282 3 0.000000 14.538000 3.556000 5.681000 # O
283 3 0.000000 15.880000 26.042999 1.740000 # O
284 3 0.000000 15.447000 26.341000 0.705000 # O
285 3 0.000000 9.726000 23.608000 2.988000 # O
286 3 0.000000 9.603000 22.834000 3.845000 # O
287 3 0.000000 27.546000 7.424000 8.545000 # O
288 3 0.000000 27.672001 7.698000 9.666000 # O
289 3 0.000000 0.016000 3.437000 12.558000 # O
290 3 0.000000 0.409000 3.407000 11.466000 # O
291 3 0.000000 1.354000 0.001000 11.072000 # O
292 3 0.000000 0.465000 0.710000 10.837000 # O
293 3 0.000000 5.472000 13.919000 24.752001 # O
294 3 0.000000 4.612000 13.142000 24.683001 # O
295 3 0.000000 7.335000 17.284000 1.767000 # O
296 3 0.000000 6.424000 17.971001 1.551000 # O
297 3 0.000000 4.004000 1.534000 2.505000 # O
298 3 0.000000 2.853000 1.614000 2.378000 # O
299 3 0.000000 6.772000 27.419001 12.231000 # O
300 3 0.000000 7.248000 27.677999 11.204000 # O
301 3 0.000000 18.572001 5.064000 27.599001 # O
302 3 0.000000 18.778000 6.044000 27.013000 # O
303 3 0.000000 10.336000 3.205000 21.827000 # O
304 3 0.000000 11.311000 3.526000 21.284000 # O
305 3 0.000000 1.438000 5.705000 27.607000 # O
306 3 0.000000 0.542000 6.331000 28.000000 # O
307 3 0.000000 22.617001 25.093000 13.037000 # O
308 3 0.000000 21.674000 24.534000 13.419000 # O
309 3 0.000000 6.036000 9.216000 16.882000 # O
310 3 0.000000 5.209000 8.426000 17.082001 # O
311 3 0.000000 16.789000 5.010000 0.357000 # O
312 3 0.000000 17.896999 4.988000 0.009000 # O
313 3 0.000000 2.739000 22.396999 26.120001 # O
314 3 0.000000 3.534000 23.233999 25.996000 # O
315 3 0.000000 3.479000 21.674000 23.104000 # O
316 3 0.000000 3.031000 22.740999 23.018999 # O
317 3 0.000000 4.795000 18.093000 15.981000 # O
318 3 0.000000 4.593000 17.892000 17.106001 # O
319 3 0.000000 14.046000 23.042999 10.609000 # O
320 3 0.000000 14.814000 22.969000 9.741000 # O
321 3 0.000000 12.134000 27.180000 6.410000 # O
322 3 0.000000 11.944000 26.042999 6.272000 # O
323 3 0.000000 27.330999 16.320999 5.480000 # O
324 3 0.000000 27.150999 15.235000 5.849000 # O
325 3 0.000000 4.461000 1.461000 18.207001 # O
326 3 0.000000 5.545000 1.716000 17.879000 # O
327 3 0.000000 24.566999 4.658000 14.849000 # O
328 3 0.000000 24.266001 5.027000 13.790000 # O
329 3 0.000000 14.280000 11.871000 3.521000 # O
330 3 0.000000 15.090000 12.665000 3.275000 # O
331 3 0.000000 27.332001 0.657000 10.131000 # O
332 3 0.000000 27.482000 1.808000 10.113000 # O
333 3 0.000000 27.084999 20.735001 25.339001 # O
334 3 0.000000 27.715000 21.695000 25.171000 # O
335 3 0.000000 6.215000 15.573000 6.491000 # O
336 3 0.000000 6.261000 15.068000 7.536000 # O
337 3 0.000000 12.027000 11.264000 15.229000 # O
338 3 0.000000 10.955000 10.871000 15.023000 # O
339 3 0.000000 14.891000 8.750000 5.888000 # O
340 3 0.000000 14.601000 7.922000 6.647000 # O
341 3 0.000000 21.681999 27.912001 13.509000 # O
342 3 0.000000 20.572001 27.999001 13.839000 # O
343 3 0.000000 26.448999 24.247000 1.941000 # O
344 3 0.000000 26.965000 23.223000 1.756000 # O
345 3 0.000000 24.798000 17.409000 8.251000 # O
346 3 0.000000 24.688999 16.855000 9.266000 # O
347 3 0.000000 5.485000 23.327000 12.512000 # O
348 3 0.000000 4.424000 23.281000 12.043000 # O
349 3 0.000000 2.900000 15.287000 11.804000 # O
350 3 0.000000 2.876000 14.209000 11.372000 # O
351 3 0.000000 2.811000 22.804001 5.704000 # O
352 3 0.000000 1.971000 22.323999 5.063000 # O
353 3 0.000000 10.100000 7.100000 1.667000 # O
354 3 0.000000 9.583000 6.288000 1.016000 # O
355 3 0.000000 27.381001 14.309000 25.174000 # O
356 3 0.000000 27.600000 14.048000 26.284000 # O
357 3 0.000000 6.919000 24.922001 11.058000 # O
358 3 0.000000 6.210000 25.315001 11.889000 # O
359 3 0.000000 9.644000 25.106001 20.410999 # O
360 3 0.000000 9.987000 24.254999 19.700001 # O
361 3 0.000000 25.367001 12.392000 24.789000 # O
362 3 0.000000 25.475000 11.294000 24.427000 # O
363 3 0.000000 20.135000 6.148000 1.597000 # O
364 3 0.000000 20.337999 6.291000 0.462000 # O
365 3 0.000000 27.719999 20.695999 5.032000 # O
366 3 0.000000 26.738001 20.841000 4.430000 # O
367 3 0.000000 22.681000 11.484000 4.753000 # O
368 3 0.000000 23.250999 11.070000 3.830000 # O
369 3 0.000000 23.437000 23.492001 11.631000 # O
370 3 0.000000 23.528999 24.292000 10.795000 # O
371 3 0.000000 8.518000 0.639000 19.893999 # O
372 3 0.000000 9.204000 0.009000 20.587000 # O
373 3 0.000000 6.294000 10.633000 7.491000 # O
374 3 0.000000 5.707000 9.657000 7.265000 # O
375 3 0.000000 14.343000 17.580999 4.473000 # O
376 3 0.000000 13.308000 18.105000 4.488000 # O
377 3 0.000000 24.902000 2.827000 27.224001 # O
378 3 0.000000 25.021000 3.970000 27.386999 # O
379 3 0.000000 10.641000 20.502001 18.672001 # O
380 3 0.000000 10.506000 21.655001 18.663000 # O
381 3 0.000000 1.298000 24.907000 12.883000 # O
382 3 0.000000 1.102000 23.777000 12.706000 # O
383 3 0.000000 4.405000 6.666000 21.723000 # O
384 3 0.000000 4.327000 5.535000 21.476000 # O
385 3 0.000000 21.952000 26.834000 10.358000 # O
386 3 0.000000 22.384001 27.827000 9.939000 # O
387 3 0.000000 15.319000 27.385000 12.740000 # O
388 3 0.000000 15.957000 27.992001 11.983000 # O
389 3 0.000000 16.879999 16.836000 11.607000 # O
390 3 0.000000 18.040001 16.820999 11.554000 # O
391 3 0.000000 12.291000 10.233000 17.242001 # O
392 3 0.000000 13.073000 9.575000 17.794001 # O
393 3 0.000000 0.182000 20.500000 20.914000 # O
394 3 0.000000 0.110000 19.586000 21.625999 # O
395 3 0.000000 14.189000 5.482000 13.318000 # O
396 3 0.000000 13.657000 6.512000 13.255000 # O
397 3 0.000000 16.143999 4.844000 7.961000 # O
398 3 0.000000 16.700001 5.435000 7.131000 # O
399 3 0.000000 17.215000 17.605000 18.237000 # O
400 3 0.000000 16.802999 16.533001 18.063999 # O
401 3 0.000000 17.702000 23.979000 15.468000 # O
402 3 0.000000 17.120001 24.673000 16.194000 # O
403 3 0.000000 9.454000 13.871000 15.422000 # O
404 3 0.000000 9.259000 15.002000 15.244000 # O
405 3 0.000000 14.501000 24.966999 8.083000 # O
406 3 0.000000 13.361000 25.079000 7.895000 # O
407 3 0.000000 10.705000 27.420000 2.856000 # O
408 3 0.000000 10.908000 26.621000 3.673000 # O
409 3 0.000000 17.927999 9.001000 13.366000 # O
410 3 0.000000 19.035999 8.983000 13.023000 # O
411 3 0.000000 12.652000 4.065000 3.533000 # O
412 3 0.000000 12.213000 5.128000 3.691000 # O
413 3 0.000000 16.305000 18.051001 9.859000 # O
414 3 0.000000 16.433001 18.285000 8.729000 # O
415 3 0.000000 21.525999 19.610001 2.823000 # O
416 3 0.000000 20.782000 18.721001 2.899000 # O
417 3 0.000000 13.967000 26.211000 11.231000 # O
418 3 0.000000 14.158000 25.247999 11.852000 # O
419 3 0.000000 27.000999 0.010000 14.624000 # O
420 3 0.000000 27.990000 0.554000 14.350000 # O
421 3 0.000000 8.992000 22.077999 20.351999 # O
422 3 0.000000 9.241000 21.714001 21.426001 # O
423 3 0.000000 0.172000 12.726000 25.743999 # O
424 3 0.000000 0.809000 11.840000 25.347000 # O
425 3 0.000000 22.797001 14.673000 2.399000 # O
426 3 0.000000 22.249001 15.357000 3.161000 # O
427 3 0.000000 19.865999 24.416000 11.076000 # O
428 3 0.000000 19.834999 25.447001 10.543000 # O
429 3 0.000000 8.096000 2.475000 1.348000 # O
430 3 0.000000 7.077000 2.914000 1.007000 # O
431 3 0.000000 3.967000 0.078000 13.908000 # O
432 3 0.000000 4.036000 0.000000 12.751000 # O
433 3 0.000000 7.638000 8.093000 22.629999 # O
434 3 0.000000 6.673000 8.735000 22.698999 # O
435 3 0.000000 6.098000 13.992000 4.507000 # O
436 3 0.000000 7.156000 13.539000 4.355000 # O
437 3 0.000000 14.475000 2.980000 16.618999 # O
438 3 0.000000 15.633000 2.913000 16.650000 # O
439 3 0.000000 16.784000 5.387000 4.591000 # O
440 3 0.000000 16.403000 6.399000 4.169000 # O
441 3 0.000000 0.011000 8.405000 11.280000 # O
442 3 0.000000 0.012000 9.565000 11.319000 # O
443 3 0.000000 22.041000 16.587000 18.114000 # O
444 3 0.000000 21.285000 16.209999 17.316000 # O
445 3 0.000000 27.902000 5.800000 5.077000 # O
446 3 0.000000 27.900000 6.957000 4.980000 # O
447 3 0.000000 8.937000 18.931000 1.158000 # O
448 3 0.000000 8.095000 19.659000 1.489000 # O
449 3 0.000000 10.740000 22.961000 9.960000 # O
450 3 0.000000 11.453000 23.434000 10.745000 # O

