 Entering Gaussian System, Link 0=g16
 Input=loop1_O_02.gjf
 Output=loop1_O_02.log
 Initial command:
 /work/home/ackgydj0bd/apprepo/gaussian/16b.01-none_v1.3/app/g16/l1.exe "/work/home/ackgydj0bd/apprepo/gaussian/16b.01-none_v1.3/app/g16/scratch/Gau-17056.inp" -scrdir="/work/home/ackgydj0bd/apprepo/gaussian/16b.01-none_v1.3/app/g16/scratch/"
 Entering Link 1 = /work/home/ackgydj0bd/apprepo/gaussian/16b.01-none_v1.3/app/g16/l1.exe PID=     17057.
  
 Copyright (c) 1988-2017, Gaussian, Inc.  All Rights Reserved.
  
 This is part of the Gaussian(R) 16 program.  It is based on
 the Gaussian(R) 09 system (copyright 2009, Gaussian, Inc.),
 the Gaussian(R) 03 system (copyright 2003, Gaussian, Inc.),
 the Gaussian(R) 98 system (copyright 1998, Gaussian, Inc.),
 the Gaussian(R) 94 system (copyright 1995, Gaussian, Inc.),
 the Gaussian 92(TM) system (copyright 1992, Gaussian, Inc.),
 the Gaussian 90(TM) system (copyright 1990, Gaussian, Inc.),
 the Gaussian 88(TM) system (copyright 1988, Gaussian, Inc.),
 the Gaussian 86(TM) system (copyright 1986, Carnegie Mellon
 University), and the Gaussian 82(TM) system (copyright 1983,
 Carnegie Mellon University). Gaussian is a federally registered
 trademark of Gaussian, Inc.
  
 This software contains proprietary and confidential information,
 including trade secrets, belonging to Gaussian, Inc.
  
 This software is provided under written license and may be
 used, copied, transmitted, or stored only in accord with that
 written license.
  
 The following legend is applicable only to US Government
 contracts under FAR:
  
                    RESTRICTED RIGHTS LEGEND
  
 Use, reproduction and disclosure by the US Government is
 subject to restrictions as set forth in subparagraphs (a)
 and (c) of the Commercial Computer Software - Restricted
 Rights clause in FAR 52.227-19.
  
 Gaussian, Inc.
 340 Quinnipiac St., Bldg. 40, Wallingford CT 06492
  
  
 ---------------------------------------------------------------
 Warning -- This program may not be used in any manner that
 competes with the business of Gaussian, Inc. or will provide
 assistance to any competitor of Gaussian, Inc.  The licensee
 of this program is prohibited from giving any competitor of
 Gaussian, Inc. access to this program.  By using this program,
 the user acknowledges that Gaussian, Inc. is engaged in the
 business of creating and licensing software in the field of
 computational chemistry and represents and warrants to the
 licensee that it is not a competitor of Gaussian, Inc. and that
 it will not use this program in any manner prohibited above.
 ---------------------------------------------------------------
  

 Cite this work as:
 Gaussian 16, Revision B.01,
 M. J. Frisch, G. W. Trucks, H. B. Schlegel, G. E. Scuseria, 
 M. A. Robb, J. R. Cheeseman, G. Scalmani, V. Barone, 
 G. A. Petersson, H. Nakatsuji, X. Li, M. Caricato, A. V. Marenich, 
 J. Bloino, B. G. Janesko, R. Gomperts, B. Mennucci, H. P. Hratchian, 
 J. V. Ortiz, A. F. Izmaylov, J. L. Sonnenberg, D. Williams-Young, 
 F. Ding, F. Lipparini, F. Egidi, J. Goings, B. Peng, A. Petrone, 
 T. Henderson, D. Ranasinghe, V. G. Zakrzewski, J. Gao, N. Rega, 
 G. Zheng, W. Liang, M. Hada, M. Ehara, K. Toyota, R. Fukuda, 
 J. Hasegawa, M. Ishida, T. Nakajima, Y. Honda, O. Kitao, H. Nakai, 
 T. Vreven, K. Throssell, J. A. Montgomery, Jr., J. E. Peralta, 
 F. Ogliaro, M. J. Bearpark, J. J. Heyd, E. N. Brothers, K. N. Kudin, 
 V. N. Staroverov, T. A. Keith, R. Kobayashi, J. Normand, 
 K. Raghavachari, A. P. Rendell, J. C. Burant, S. S. Iyengar, 
 J. Tomasi, M. Cossi, J. M. Millam, M. Klene, C. Adamo, R. Cammi, 
 J. W. Ochterski, R. L. Martin, K. Morokuma, O. Farkas, 
 J. B. Foresman, and D. J. Fox, Gaussian, Inc., Wallingford CT, 2016.
 
 ******************************************
 Gaussian 16:  EM64L-G16RevB.01 20-Dec-2017
                 9-Jul-2026 
 ******************************************
 %nproc=64
 Will use up to   64 processors via shared memory.
 -----------------------------------------
 #force b3lyp/3-21G* Geom=PrintInputOrient
 -----------------------------------------
 1/10=7,30=1,38=1/1,3;
 2/9=2000,12=2,17=6,18=5,40=1/2;
 3/5=5,7=1,11=2,25=1,30=1,71=1,74=-5/1,2,3;
 4//1;
 5/5=2,38=5/2;
 6/7=2,8=2,9=2,10=2,28=1/1;
 7/29=1/1,2,3,16;
 1/10=7,30=1/3;
 99//99;
 -------------------------------------------------
 Generated by MDDatasetMaker (Author: Jinzhe Zeng)
 -------------------------------------------------
 Symbolic Z-matrix:
 Charge =  0 Multiplicity = 3
 H                     15.002    21.9235   11.7331 
 H                     13.1088   23.3212   11.8683 
 O                     14.4747   23.6419   10.9658 
 

 GradGradGradGradGradGradGradGradGradGradGradGradGradGradGradGradGradGrad
 Berny optimization.
 Initialization pass.
 Trust Radius=3.00D-01 FncErr=1.00D-07 GrdErr=1.00D-07 EigMax=2.50D+02 EigMin=1.00D-04
 Number of steps in this run=      2 maximum allowed number of steps=      2.
 GradGradGradGradGradGradGradGradGradGradGradGradGradGradGradGradGradGrad

                          Input orientation:                          
 ---------------------------------------------------------------------
 Center     Atomic      Atomic             Coordinates (Angstroms)
 Number     Number       Type             X           Y           Z
 ---------------------------------------------------------------------
      1          1           0       15.002000   21.923500   11.733100
      2          1           0       13.108800   23.321200   11.868300
      3          8           0       14.474700   23.641900   10.965800
 ---------------------------------------------------------------------
                    Distance matrix (angstroms):
                    1          2          3
     1  H    0.000000
     2  H    2.357128   0.000000
     3  O    1.954404   1.668244   0.000000
 Stoichiometry    H2O(3)
 Framework group  CS[SG(H2O)]
 Deg. of freedom     3
 Full point group                 CS      NOp   2
 Largest Abelian subgroup         CS      NOp   2
 Largest concise Abelian subgroup C1      NOp   1
                         Standard orientation:                         
 ---------------------------------------------------------------------
 Center     Atomic      Atomic             Coordinates (Angstroms)
 Number     Number       Type             X           Y           Z
 ---------------------------------------------------------------------
      1          1           0        1.163568   -1.293712    0.000000
      2          1           0       -1.163568   -0.918894    0.000000
      3          8           0        0.000000    0.276576    0.000000
 ---------------------------------------------------------------------
 Rotational constants (GHZ):         199.8482236         136.8036543          81.2113910
 Standard basis: 3-21G* (6D, 7F)
 There are    11 symmetry adapted cartesian basis functions of A'  symmetry.
 There are     2 symmetry adapted cartesian basis functions of A"  symmetry.
 There are    11 symmetry adapted basis functions of A'  symmetry.
 There are     2 symmetry adapted basis functions of A"  symmetry.
    13 basis functions,    21 primitive gaussians,    13 cartesian basis functions
     6 alpha electrons        4 beta electrons
       nuclear repulsion energy         4.9282420028 Hartrees.
 NAtoms=    3 NActive=    3 NUniq=    3 SFac= 1.00D+00 NAtFMM=   60 NAOKFM=F Big=F
 Integral buffers will be    131072 words long.
 Raffenetti 2 integral format.
 Two-electron integral symmetry is turned on.
 One-electron integrals computed using PRISM.
 PrsmSu:  requested number of processors reduced to:  31 ShMem   1 Linda.
 NBasis=    13 RedAO= T EigKep=  2.09D-01  NBF=    11     2
 NBsUse=    13 1.00D-06 EigRej= -1.00D+00 NBFU=    11     2
 ExpMin= 1.83D-01 ExpMax= 3.22D+02 ExpMxC= 3.22D+02 IAcc=3 IRadAn=         5 AccDes= 0.00D+00
 Harris functional with IExCor=  402 and IRadAn=       5 diagonalized for initial guess.
 HarFok:  IExCor=  402 AccDes= 0.00D+00 IRadAn=         5 IDoV= 1 UseB2=F ITyADJ=14
 ICtDFT=  3500011 ScaDFX=  1.000000  1.000000  1.000000  1.000000
 FoFCou: FMM=F IPFlag=           0 FMFlag=      100000 FMFlg1=           0
         NFxFlg=           0 DoJE=T BraDBF=F KetDBF=T FulRan=T
         wScrn=  0.000000 ICntrl=       500 IOpCl=  0 I1Cent=   200000004 NGrid=           0
         NMat0=    1 NMatS0=      1 NMatT0=    0 NMatD0=    1 NMtDS0=    0 NMtDT0=    0
 Petite list used in FoFCou.
 Initial guess orbital symmetries:
 Alpha Orbitals:
       Occupied  (A') (A') (A') (A') (A") (A')
       Virtual   (A') (A') (A') (A") (A') (A') (A')
 Beta  Orbitals:
       Occupied  (A') (A') (A') (A')
       Virtual   (A") (A') (A') (A') (A') (A") (A') (A') (A')
 The electronic state of the initial guess is 3-A".
 Initial guess <Sx>= 0.0000 <Sy>= 0.0000 <Sz>= 1.0000 <S**2>= 2.0000 S= 1.0000
 Keep R1 and R2 ints in memory in symmetry-blocked form, NReq=55211669.
 Requested convergence on RMS density matrix=1.00D-08 within 128 cycles.
 Requested convergence on MAX density matrix=1.00D-06.
 Requested convergence on             energy=1.00D-06.
 No special actions if energy rises.
 Integral accuracy reduced to 1.0D-05 until final iterations.
 Initial convergence to 1.0D-05 achieved.  Increase integral accuracy.
 SCF Done:  E(UB3LYP) =  -75.7122700728     A.U. after   21 cycles
            NFock= 21  Conv=0.22D-08     -V/T= 2.0103
 <Sx>= 0.0000 <Sy>= 0.0000 <Sz>= 1.0000 <S**2>= 2.2266 S= 1.0737
 <L.S>= 0.000000000000E+00
 Annihilation of the first spin contaminant:
 S**2 before annihilation     2.2266,   after     2.0005

 **********************************************************************

            Population analysis using the SCF Density.

 **********************************************************************

 Orbital symmetries:
 Alpha Orbitals:
       Occupied  (A') (A') (A') (A") (A') (A')
       Virtual   (A') (A') (A') (A") (A') (A') (A')
 Beta  Orbitals:
       Occupied  (A') (A') (A') (A')
       Virtual   (A") (A') (A') (A') (A') (A") (A') (A') (A')
 The electronic state is 3-A".
 Alpha  occ. eigenvalues --  -19.14333  -0.96674  -0.40936  -0.40884  -0.36583
 Alpha  occ. eigenvalues --   -0.23014
 Alpha virt. eigenvalues --   -0.10105   0.88230   0.97722   1.31514   1.41056
 Alpha virt. eigenvalues --    1.42278   2.22639
  Beta  occ. eigenvalues --  -19.10425  -0.84466  -0.36413  -0.29480
  Beta virt. eigenvalues --   -0.13261  -0.10330  -0.02926   0.84396   1.07248
  Beta virt. eigenvalues --    1.44544   1.46297   1.48854   2.31287
          Condensed to atoms (all electrons):
               1          2          3
     1  H    1.072663   0.017200  -0.000702
     2  H    0.017200   0.733815   0.109732
     3  O   -0.000702   0.109732   7.941061
          Atomic-Atomic Spin Densities.
               1          2          3
     1  H    0.918578   0.012469  -0.080420
     2  H    0.012469  -0.456516  -0.009425
     3  O   -0.080420  -0.009425   1.692688
 Mulliken charges and spin densities:
               1          2
     1  H   -0.089161   0.850628
     2  H    0.139253  -0.453471
     3  O   -0.050091   1.602843
 Sum of Mulliken charges =   0.00000   2.00000
 Mulliken charges and spin densities with hydrogens summed into heavy atoms:
               1          2
     3  O    0.000000   2.000000
 Electronic spatial extent (au):  <R**2>=             36.2232
 Charge=              0.0000 electrons
 Dipole moment (field-independent basis, Debye):
    X=             -1.4138    Y=             -0.3329    Z=              0.0000  Tot=              1.4524
 Quadrupole moment (field-independent basis, Debye-Ang):
   XX=             -6.6270   YY=             -7.2676   ZZ=             -6.7868
   XY=              1.9402   XZ=              0.0000   YZ=              0.0000
 Traceless Quadrupole moment (field-independent basis, Debye-Ang):
   XX=              0.2668   YY=             -0.3738   ZZ=              0.1070
   XY=              1.9402   XZ=              0.0000   YZ=              0.0000
 Octapole moment (field-independent basis, Debye-Ang**2):
  XXX=             -3.5502  YYY=              3.9390  ZZZ=              0.0000  XYY=             -2.0748
  XXY=              0.5586  XXZ=              0.0000  XZZ=             -0.4329  YZZ=              1.4428
  YYZ=              0.0000  XYZ=              0.0000
 Hexadecapole moment (field-independent basis, Debye-Ang**3):
 XXXX=            -22.3519 YYYY=            -26.2418 ZZZZ=             -4.6911 XXXY=              5.6871
 XXXZ=              0.0000 YYYX=              5.3254 YYYZ=              0.0000 ZZZX=              0.0000
 ZZZY=              0.0000 XXYY=             -7.7133 XXZZ=             -4.7470 YYZZ=             -5.0571
 XXYZ=              0.0000 YYXZ=              0.0000 ZZXY=              1.0827
 N-N= 4.928242002764D+00 E-N=-1.888277693759D+02  KE= 7.494078847147D+01
 Symmetry A'   KE= 7.233274706750D+01
 Symmetry A"   KE= 2.608041403971D+00
 Symmetry A'   SP= 1.000000000000D+00
 Symmetry A"   SP= 1.000000000000D+00
                          Isotropic Fermi Contact Couplings
        Atom                 a.u.       MegaHertz       Gauss      10(-4) cm-1
     1  H(1)               0.22349     499.49236     178.23129     166.61272
     2  H(1)              -0.12862    -287.46352    -102.57413     -95.88751
     3  O(17)              0.14071     -42.64787     -15.21782     -14.22580
 --------------------------------------------------------
       Center         ----  Spin Dipole Couplings  ----
                      3XX-RR        3YY-RR        3ZZ-RR
 --------------------------------------------------------
     1   Atom       -0.006613      0.020353     -0.013740
     2   Atom        0.038123      0.017030     -0.055153
     3   Atom       -1.752151     -0.541415      2.293566
 --------------------------------------------------------
                        XY            XZ            YZ
 --------------------------------------------------------
     1   Atom       -0.025899      0.000000      0.000000
     2   Atom        0.069433      0.000000      0.000000
     3   Atom        0.843885      0.000000      0.000000
 --------------------------------------------------------


 ---------------------------------------------------------------------------------
              Anisotropic Spin Dipole Couplings in Principal Axis System
 ---------------------------------------------------------------------------------

       Atom             a.u.   MegaHertz   Gauss  10(-4) cm-1        Axes

              Baa    -0.0223   -11.914    -4.251    -3.974  0.8549  0.5188  0.0000
     1 H(1)   Bbb    -0.0137    -7.331    -2.616    -2.445  0.0000  0.0000  1.0000
              Bcc     0.0361    19.244     6.867     6.419 -0.5188  0.8549  0.0000
 
              Baa    -0.0552   -29.427   -10.500    -9.816  0.0000  0.0000  1.0000
     2 H(1)   Bbb    -0.0427   -22.757    -8.120    -7.591 -0.6519  0.7583  0.0000
              Bcc     0.0978    52.185    18.621    17.407  0.7583  0.6519  0.0000
 
              Baa    -2.1853   158.130    56.425    52.747  0.8896 -0.4567  0.0000
     3 O(17)  Bbb    -0.1082     7.831     2.794     2.612  0.4567  0.8896  0.0000
              Bcc     2.2936  -165.961   -59.219   -55.359  0.0000  0.0000  1.0000
 

 ---------------------------------------------------------------------------------

 PrsmSu:  requested number of processors reduced to:  31 ShMem   1 Linda.
 Calling FoFJK, ICntrl=      2127 FMM=F ISym2X=1 I1Cent= 0 IOpClX= 1 NMat=1 NMatS=1 NMatT=0.
 ***** Axes restored to original set *****
 -------------------------------------------------------------------
 Center     Atomic                   Forces (Hartrees/Bohr)
 Number     Number              X              Y              Z
 -------------------------------------------------------------------
      1        1          -0.001809559    0.000467345    0.000655286
      2        1           0.058732222    0.011694354   -0.037537473
      3        8          -0.056922663   -0.012161699    0.036882187
 -------------------------------------------------------------------
 Cartesian Forces:  Max     0.058732222 RMS     0.032909992

 GradGradGradGradGradGradGradGradGradGradGradGradGradGradGradGradGradGrad
 Berny optimization.
 Search for a local minimum.
 Step number   1 out of a maximum of    2
 All quantities printed in internal units (Hartrees-Bohrs-Radians)
 Second derivative matrix not updated -- first step.
 The second derivative matrix:
                          X1        Y1        Z1        X2        Y2
           X1           1.00000
           Y1           0.00000   1.00000
           Z1           0.00000   0.00000   1.00000
           X2           0.00000   0.00000   0.00000   1.00000
           Y2           0.00000   0.00000   0.00000   0.00000   1.00000
           Z2           0.00000   0.00000   0.00000   0.00000   0.00000
           X3           0.00000   0.00000   0.00000   0.00000   0.00000
           Y3           0.00000   0.00000   0.00000   0.00000   0.00000
           Z3           0.00000   0.00000   0.00000   0.00000   0.00000
                          Z2        X3        Y3        Z3
           Z2           1.00000
           X3           0.00000   1.00000
           Y3           0.00000   0.00000   1.00000
           Z3           0.00000   0.00000   0.00000   1.00000
 ITU=  0
     Eigenvalues ---    1.00000   1.00000   1.00000   1.00000   1.00000
     Eigenvalues ---    1.00000   1.00000   1.00000   1.00000
 Angle between quadratic step and forces=   0.00 degrees.
 ClnCor:  largest displacement from symmetrization is 7.54D-17 for atom     2.
 Linear search not attempted -- first point.
 ClnCor:  largest displacement from symmetrization is 3.55D-15 for atom     1.
 B after Tr=     0.000004   -0.000002   -0.000001
         Rot=    1.000000    0.000000    0.000000    0.000000 Ang=   0.00 deg.
 Variable       Old X    -DE/DX   Delta X   Delta X   Delta X     New X
                                 (Linear)    (Quad)   (Total)
    X1       28.34967  -0.00181   0.00000  -0.00181  -0.00181  28.34786
    Y1       41.42941   0.00047   0.00000   0.00047   0.00047  41.42988
    Z1       22.17235   0.00066   0.00000   0.00066   0.00066  22.17300
    X2       24.77204   0.05873   0.00000   0.05873   0.05873  24.83077
    Y2       44.07068   0.01169   0.00000   0.01169   0.01169  44.08237
    Z2       22.42784  -0.03754   0.00000  -0.03754  -0.03754  22.39030
    X3       27.35322  -0.05692   0.00000  -0.05692  -0.05692  27.29630
    Y3       44.67672  -0.01216   0.00000  -0.01216  -0.01216  44.66455
    Z3       20.72236   0.03688   0.00000   0.03688   0.03688  20.75924
         Item               Value     Threshold  Converged?
 Maximum Force            0.058732     0.000450     NO 
 RMS     Force            0.032910     0.000300     NO 
 Maximum Displacement     0.058732     0.001800     NO 
 RMS     Displacement     0.032910     0.001200     NO 
 Predicted change in Energy=-4.873804D-03
 GradGradGradGradGradGradGradGradGradGradGradGradGradGradGradGradGradGrad

 1\1\GINC-H08R06\Force\UB3LYP\3-21G*\H2O1(3)\ACKGYDJ0BD\09-Jul-2026\0\\
 #force b3lyp/3-21G* Geom=PrintInputOrient\\Generated by MDDatasetMaker
  (Author: Jinzhe Zeng)\\0,3\H,15.002,21.9235,11.7331\H,13.1088,23.3212
 ,11.8683\O,14.4747,23.6419,10.9658\\Version=EM64L-G16RevB.01\State=3-A
 "\HF=-75.7122701\S2=2.226552\S2-1=0.\S2A=2.000471\RMSD=2.222e-09\RMSF=
 3.291e-02\Dipole=-0.519368,0.1714686,0.165465\Quadrupole=0.8894011,-1.
 1120867,0.2226856,0.5770802,-0.7694287,0.4224734\PG=CS [SG(H2O1)]\\@


 GARLIC THEN HAVE POWER TO SAVE FROM DEATH
 BEAR WITH IT THOUGH IT MAKETH UNSAVORY BREATH,
 AND SCORN NOT GARLIC LIKE SOME THAT THINK
 IT ONLY MAKETH MEN WINK AND DRINK AND STINK.
   --  SIR JOHN HARRINGTON,
       "THE ENGLISHMAN'S DOCTOR", 1609
 Job cpu time:       0 days  0 hours  2 minutes 22.0 seconds.
 Elapsed time:       0 days  0 hours  0 minutes  2.9 seconds.
 File lengths (MBytes):  RWF=      6 Int=      0 D2E=      0 Chk=      1 Scr=      1
 Normal termination of Gaussian 16 at Thu Jul  9 10:28:54 2026.
