 Entering Gaussian System, Link 0=g16
 Input=loop1_C11_02.gjf
 Output=loop1_C11_02.log
 Initial command:
 /work/home/ackgydj0bd/apprepo/gaussian/16b.01-none_v1.3/app/g16/l1.exe "/work/home/ackgydj0bd/apprepo/gaussian/16b.01-none_v1.3/app/g16/scratch/Gau-240586.inp" -scrdir="/work/home/ackgydj0bd/apprepo/gaussian/16b.01-none_v1.3/app/g16/scratch/"
 Entering Link 1 = /work/home/ackgydj0bd/apprepo/gaussian/16b.01-none_v1.3/app/g16/l1.exe PID=    240587.
  
 Copyright (c) 1988-2017, Gaussian, Inc.  All Rights Reserved.
  
 This is part of the Gaussian(R) 16 program.  It is based on
 the Gaussian(R) 09 system (copyright 2009, Gaussian, Inc.),
 the Gaussian(R) 03 system (copyright 2003, Gaussian, Inc.),
 the Gaussian(R) 98 system (copyright 1998, Gaussian, Inc.),
 the Gaussian(R) 94 system (copyright 1995, Gaussian, Inc.),
 the Gaussian 92(TM) system (copyright 1992, Gaussian, Inc.),
 the Gaussian 90(TM) system (copyright 1990, Gaussian, Inc.),
 the Gaussian 88(TM) system (copyright 1988, Gaussian, Inc.),
 the Gaussian 86(TM) system (copyright 1986, Carnegie Mellon
 University), and the Gaussian 82(TM) system (copyright 1983,
 Carnegie Mellon University). Gaussian is a federally registered
 trademark of Gaussian, Inc.
  
 This software contains proprietary and confidential information,
 including trade secrets, belonging to Gaussian, Inc.
  
 This software is provided under written license and may be
 used, copied, transmitted, or stored only in accord with that
 written license.
  
 The following legend is applicable only to US Government
 contracts under FAR:
  
                    RESTRICTED RIGHTS LEGEND
  
 Use, reproduction and disclosure by the US Government is
 subject to restrictions as set forth in subparagraphs (a)
 and (c) of the Commercial Computer Software - Restricted
 Rights clause in FAR 52.227-19.
  
 Gaussian, Inc.
 340 Quinnipiac St., Bldg. 40, Wallingford CT 06492
  
  
 ---------------------------------------------------------------
 Warning -- This program may not be used in any manner that
 competes with the business of Gaussian, Inc. or will provide
 assistance to any competitor of Gaussian, Inc.  The licensee
 of this program is prohibited from giving any competitor of
 Gaussian, Inc. access to this program.  By using this program,
 the user acknowledges that Gaussian, Inc. is engaged in the
 business of creating and licensing software in the field of
 computational chemistry and represents and warrants to the
 licensee that it is not a competitor of Gaussian, Inc. and that
 it will not use this program in any manner prohibited above.
 ---------------------------------------------------------------
  

 Cite this work as:
 Gaussian 16, Revision B.01,
 M. J. Frisch, G. W. Trucks, H. B. Schlegel, G. E. Scuseria, 
 M. A. Robb, J. R. Cheeseman, G. Scalmani, V. Barone, 
 G. A. Petersson, H. Nakatsuji, X. Li, M. Caricato, A. V. Marenich, 
 J. Bloino, B. G. Janesko, R. Gomperts, B. Mennucci, H. P. Hratchian, 
 J. V. Ortiz, A. F. Izmaylov, J. L. Sonnenberg, D. Williams-Young, 
 F. Ding, F. Lipparini, F. Egidi, J. Goings, B. Peng, A. Petrone, 
 T. Henderson, D. Ranasinghe, V. G. Zakrzewski, J. Gao, N. Rega, 
 G. Zheng, W. Liang, M. Hada, M. Ehara, K. Toyota, R. Fukuda, 
 J. Hasegawa, M. Ishida, T. Nakajima, Y. Honda, O. Kitao, H. Nakai, 
 T. Vreven, K. Throssell, J. A. Montgomery, Jr., J. E. Peralta, 
 F. Ogliaro, M. J. Bearpark, J. J. Heyd, E. N. Brothers, K. N. Kudin, 
 V. N. Staroverov, T. A. Keith, R. Kobayashi, J. Normand, 
 K. Raghavachari, A. P. Rendell, J. C. Burant, S. S. Iyengar, 
 J. Tomasi, M. Cossi, J. M. Millam, M. Klene, C. Adamo, R. Cammi, 
 J. W. Ochterski, R. L. Martin, K. Morokuma, O. Farkas, 
 J. B. Foresman, and D. J. Fox, Gaussian, Inc., Wallingford CT, 2016.
 
 ******************************************
 Gaussian 16:  EM64L-G16RevB.01 20-Dec-2017
                 9-Jul-2026 
 ******************************************
 %nproc=64
 Will use up to   64 processors via shared memory.
 -----------------------------------------
 #force b3lyp/3-21G* Geom=PrintInputOrient
 -----------------------------------------
 1/10=7,30=1,38=1/1,3;
 2/9=2000,12=2,17=6,18=5,40=1/2;
 3/5=5,7=1,11=2,25=1,30=1,71=1,74=-5/1,2,3;
 4//1;
 5/5=2,38=5/2;
 6/7=2,8=2,9=2,10=2,28=1/1;
 7/29=1/1,2,3,16;
 1/10=7,30=1/3;
 99//99;
 -------------------------------------------------
 Generated by MDDatasetMaker (Author: Jinzhe Zeng)
 -------------------------------------------------
 Symbolic Z-matrix:
 Charge =  0 Multiplicity = 2
 C                     4.26691   2.45016   22.7238 
 O                     2.77928   2.84267   22.2187 
 O                     3.10812   3.62356   21.292 
 H                     2.37461   3.74736   21.7521 
 O                     5.94152   2.21157   22.0803 
 

 GradGradGradGradGradGradGradGradGradGradGradGradGradGradGradGradGradGrad
 Berny optimization.
 Initialization pass.
 Trust Radius=3.00D-01 FncErr=1.00D-07 GrdErr=1.00D-07 EigMax=2.50D+02 EigMin=1.00D-04
 Number of steps in this run=      2 maximum allowed number of steps=      2.
 GradGradGradGradGradGradGradGradGradGradGradGradGradGradGradGradGradGrad

                          Input orientation:                          
 ---------------------------------------------------------------------
 Center     Atomic      Atomic             Coordinates (Angstroms)
 Number     Number       Type             X           Y           Z
 ---------------------------------------------------------------------
      1          6           0        4.266910    2.450160   22.723800
      2          8           0        2.779280    2.842670   22.218700
      3          8           0        3.108120    3.623560   21.292000
      4          1           0        2.374610    3.747360   21.752100
      5          8           0        5.941520    2.211570   22.080300
 ---------------------------------------------------------------------
                    Distance matrix (angstroms):
                    1          2          3          4          5
     1  C    0.000000
     2  O    1.619331   0.000000
     3  O    2.183967   1.255666   0.000000
     4  H    2.491531   1.095417   0.874674   0.000000
     5  O    1.809789   3.227569   3.262405   3.897334   0.000000
 Stoichiometry    CHO3(2)
 Framework group  C1[X(CHO3)]
 Deg. of freedom     9
 Full point group                 C1      NOp   1
 Largest Abelian subgroup         C1      NOp   1
 Largest concise Abelian subgroup C1      NOp   1
                         Standard orientation:                         
 ---------------------------------------------------------------------
 Center     Atomic      Atomic             Coordinates (Angstroms)
 Number     Number       Type             X           Y           Z
 ---------------------------------------------------------------------
      1          6           0        0.527102   -0.654164    0.159323
      2          8           0       -1.061621   -0.525779   -0.126524
      3          8           0       -1.169022    0.715517    0.029515
      4          1           0       -1.821854    0.172677    0.239731
      5          8           0        2.063049    0.279300   -0.052450
 ---------------------------------------------------------------------
 Rotational constants (GHZ):          25.6592002           4.3844991           3.7824038
 Standard basis: 3-21G* (6D, 7F)
 There are    38 symmetry adapted cartesian basis functions of A   symmetry.
 There are    38 symmetry adapted basis functions of A   symmetry.
    38 basis functions,    63 primitive gaussians,    38 cartesian basis functions
    16 alpha electrons       15 beta electrons
       nuclear repulsion energy       100.2623905158 Hartrees.
 NAtoms=    5 NActive=    5 NUniq=    5 SFac= 1.00D+00 NAtFMM=   60 NAOKFM=F Big=F
 Integral buffers will be    131072 words long.
 Raffenetti 2 integral format.
 Two-electron integral symmetry is turned on.
 One-electron integrals computed using PRISM.
 PrsmSu:  requested number of processors reduced to:  31 ShMem   1 Linda.
 NBasis=    38 RedAO= T EigKep=  5.14D-02  NBF=    38
 NBsUse=    38 1.00D-06 EigRej= -1.00D+00 NBFU=    38
 ExpMin= 1.83D-01 ExpMax= 3.22D+02 ExpMxC= 3.22D+02 IAcc=3 IRadAn=         5 AccDes= 0.00D+00
 Harris functional with IExCor=  402 and IRadAn=       5 diagonalized for initial guess.
 HarFok:  IExCor=  402 AccDes= 0.00D+00 IRadAn=         5 IDoV= 1 UseB2=F ITyADJ=14
 ICtDFT=  3500011 ScaDFX=  1.000000  1.000000  1.000000  1.000000
 FoFCou: FMM=F IPFlag=           0 FMFlag=      100000 FMFlg1=           0
         NFxFlg=           0 DoJE=T BraDBF=F KetDBF=T FulRan=T
         wScrn=  0.000000 ICntrl=       500 IOpCl=  0 I1Cent=   200000004 NGrid=           0
         NMat0=    1 NMatS0=      1 NMatT0=    0 NMatD0=    1 NMtDS0=    0 NMtDT0=    0
 Petite list used in FoFCou.
 Initial guess <Sx>= 0.0000 <Sy>= 0.0000 <Sz>= 0.5000 <S**2>= 0.7500 S= 0.5000
 Keep R1 and R2 ints in memory in canonical form, NReq=55854913.
 Requested convergence on RMS density matrix=1.00D-08 within 128 cycles.
 Requested convergence on MAX density matrix=1.00D-06.
 Requested convergence on             energy=1.00D-06.
 No special actions if energy rises.
 Integral accuracy reduced to 1.0D-05 until final iterations.
 EnCoef did     3 forward-backward iterations
 Rare condition: small coef for last iteration:  0.000D+00
 Rare condition: small coef for last iteration:  0.000D+00
 Problem detected with inexpensive integrals.
 Switching to full accuracy and repeating last cycle.
 Rare condition: small coef for last iteration:  0.000D+00
 EnCoef did   100 forward-backward iterations
 Rare condition: small coef for last iteration:  0.000D+00
 Rare condition: small coef for last iteration:  0.000D+00
 Rare condition: small coef for last iteration:  0.000D+00
 Rare condition: small coef for last iteration:  0.000D+00
 EnCoef did   100 forward-backward iterations
 Rare condition: small coef for last iteration:  0.000D+00
 Rare condition: small coef for last iteration:  0.000D+00
 Rare condition: small coef for last iteration:  0.000D+00
 Rare condition: small coef for last iteration:  0.000D+00
 Rare condition: small coef for last iteration:  0.000D+00
 Rare condition: small coef for last iteration:  0.000D+00
 Rare condition: small coef for last iteration:  0.000D+00
 Rare condition: small coef for last iteration:  0.000D+00
 Rare condition: small coef for last iteration:  0.000D+00
 Rare condition: small coef for last iteration:  0.000D+00
 Rare condition: small coef for last iteration:  0.000D+00
 Rare condition: small coef for last iteration:  0.000D+00
 Rare condition: small coef for last iteration:  0.000D+00
 Rare condition: small coef for last iteration:  0.000D+00
 Rare condition: small coef for last iteration:  0.000D+00
 Rare condition: small coef for last iteration:  0.000D+00
 Rare condition: small coef for last iteration:  0.000D+00
 Rare condition: small coef for last iteration:  0.000D+00
 Rare condition: small coef for last iteration:  0.000D+00
 Rare condition: small coef for last iteration:  0.000D+00
 Rare condition: small coef for last iteration:  0.000D+00
 Rare condition: small coef for last iteration:  0.000D+00
 Rare condition: small coef for last iteration:  0.000D+00
 Rare condition: small coef for last iteration:  0.000D+00
 Rare condition: small coef for last iteration:  0.000D+00
 Rare condition: small coef for last iteration:  0.000D+00
 Rare condition: small coef for last iteration:  0.000D+00
 Rare condition: small coef for last iteration:  0.000D+00
 Rare condition: small coef for last iteration:  0.000D+00
 Rare condition: small coef for last iteration:  0.000D+00
 Rare condition: small coef for last iteration:  0.000D+00
 Rare condition: small coef for last iteration:  0.000D+00
 Rare condition: small coef for last iteration:  0.000D+00
 Rare condition: small coef for last iteration:  0.000D+00
 Rare condition: small coef for last iteration:  0.000D+00
 Rare condition: small coef for last iteration:  0.000D+00
 Rare condition: small coef for last iteration:  0.000D+00
 Rare condition: small coef for last iteration:  0.000D+00
 Rare condition: small coef for last iteration:  0.000D+00
 Rare condition: small coef for last iteration:  0.000D+00
 Rare condition: small coef for last iteration:  0.000D+00
 Rare condition: small coef for last iteration:  0.000D+00
 Rare condition: small coef for last iteration:  0.000D+00
 >>>>>>>>>> Convergence criterion not met.
 SCF Done:  E(UB3LYP) =  -262.330656017     A.U. after  129 cycles
            NFock=128  Conv=0.40D-02     -V/T= 2.0049
 <Sx>= 0.0000 <Sy>= 0.0000 <Sz>= 0.5000 <S**2>= 0.9190 S= 0.5812
 <L.S>= 0.000000000000E+00
 Annihilation of the first spin contaminant:
 S**2 before annihilation     0.9190,   after     0.7549

 **********************************************************************

            Population analysis using the SCF Density.

 **********************************************************************

 Orbital symmetries:
 Alpha Orbitals:
       Occupied  (A) (A) (A) (A) (A) (A) (A) (A) (A) (A) (A) (A)
                 (A) (A) (A) (A)
       Virtual   (A) (A) (A) (A) (A) (A) (A) (A) (A) (A) (A) (A)
                 (A) (A) (A) (A) (A) (A) (A) (A) (A) (A)
 Beta  Orbitals:
       Occupied  (A) (A) (A) (A) (A) (A) (A) (A) (A) (A) (A) (A)
                 (A) (A) (A)
       Virtual   (A) (A) (A) (A) (A) (A) (A) (A) (A) (A) (A) (A)
                 (A) (A) (A) (A) (A) (A) (A) (A) (A) (A) (A)
 The electronic state is 2-A.
 Alpha  occ. eigenvalues --  -19.20471 -19.11870 -19.10061 -10.33763  -1.39940
 Alpha  occ. eigenvalues --   -0.91334  -0.89168  -0.68918  -0.58314  -0.52726
 Alpha  occ. eigenvalues --   -0.50101  -0.38356  -0.32048  -0.30835  -0.29501
 Alpha  occ. eigenvalues --   -0.26625
 Alpha virt. eigenvalues --   -0.14685  -0.10713   0.05097   0.12897   0.15783
 Alpha virt. eigenvalues --    0.66612   0.68226   0.74972   0.91562   1.06959
 Alpha virt. eigenvalues --    1.31623   1.35590   1.42379   1.43415   1.46678
 Alpha virt. eigenvalues --    1.51300   1.53506   1.62518   1.71733   2.52173
 Alpha virt. eigenvalues --    2.80503   2.83302
  Beta  occ. eigenvalues --  -19.20118 -19.11652 -19.09483 -10.32765  -1.39404
  Beta  occ. eigenvalues --   -0.89584  -0.87826  -0.67700  -0.57049  -0.51870
  Beta  occ. eigenvalues --   -0.47491  -0.36434  -0.30715  -0.30537  -0.26548
  Beta virt. eigenvalues --   -0.14974  -0.12130  -0.08616   0.07919   0.13434
  Beta virt. eigenvalues --    0.16358   0.68099   0.72582   0.75592   0.91731
  Beta virt. eigenvalues --    1.08969   1.32068   1.35975   1.42847   1.43506
  Beta virt. eigenvalues --    1.46784   1.53904   1.55329   1.62826   1.72675
  Beta virt. eigenvalues --    2.53476   2.81306   2.83766
          Condensed to atoms (all electrons):
               1          2          3          4          5
     1  C    5.543320   0.096533  -0.060898   0.012187   0.179938
     2  O    0.096533   8.422052  -0.179741  -0.062358  -0.000745
     3  O   -0.060898  -0.179741   8.284466   0.230525  -0.000397
     4  H    0.012187  -0.062358   0.230525   0.398639   0.000090
     5  O    0.179938  -0.000745  -0.000397   0.000090   7.921256
          Atomic-Atomic Spin Densities.
               1          2          3          4          5
     1  C    0.655229  -0.072278  -0.007383   0.000704  -0.002744
     2  O   -0.072278   0.199666  -0.025265   0.001566   0.000492
     3  O   -0.007383  -0.025265   0.103224  -0.004277  -0.000060
     4  H    0.000704   0.001566  -0.004277   0.001506   0.000035
     5  O   -0.002744   0.000492  -0.000060   0.000035   0.258796
 Mulliken charges and spin densities:
               1          2
     1  C    0.228920   0.573529
     2  O   -0.275740   0.104181
     3  O   -0.273954   0.066239
     4  H    0.420917  -0.000467
     5  O   -0.100143   0.256518
 Sum of Mulliken charges =   0.00000   1.00000
 Mulliken charges and spin densities with hydrogens summed into heavy atoms:
               1          2
     1  C    0.228920   0.573529
     2  O   -0.275740   0.104181
     3  O    0.146963   0.065772
     5  O   -0.100143   0.256518
 Electronic spatial extent (au):  <R**2>=            294.0998
 Charge=              0.0000 electrons
 Dipole moment (field-independent basis, Debye):
    X=             -2.1625    Y=             -0.4209    Z=              0.3509  Tot=              2.2309
 Quadrupole moment (field-independent basis, Debye-Ang):
   XX=            -19.9459   YY=            -23.2301   ZZ=            -21.5521
   XY=              0.3197   XZ=             -1.4388   YZ=              0.2199
 Traceless Quadrupole moment (field-independent basis, Debye-Ang):
   XX=              1.6301   YY=             -1.6541   ZZ=              0.0240
   XY=              0.3197   XZ=             -1.4388   YZ=              0.2199
 Octapole moment (field-independent basis, Debye-Ang**2):
  XXX=            -16.1309  YYY=              4.4212  ZZZ=             -0.9288  XYY=              0.2139
  XXY=              2.5839  XXZ=              0.9587  XZZ=             -1.6673  YZZ=              1.4215
  YYZ=             -0.6971  XYZ=             -0.0200
 Hexadecapole moment (field-independent basis, Debye-Ang**3):
 XXXX=           -219.6169 YYYY=            -56.7374 ZZZZ=            -16.9378 XXXY=              3.5052
 XXXZ=             -5.8234 YYYX=              3.5742 YYYZ=              1.6273 ZZZX=             -1.2596
 ZZZY=              0.8338 XXYY=            -50.5251 XXZZ=            -42.6309 YYZZ=            -12.7474
 XXYZ=              0.0684 YYXZ=             -1.1460 ZZXY=              0.9265
 N-N= 1.002623905158D+02 E-N=-8.189144692796D+02  KE= 2.610553029996D+02
                          Isotropic Fermi Contact Couplings
        Atom                 a.u.       MegaHertz       Gauss      10(-4) cm-1
     1  C(13)              0.24268     272.82006      97.34898      91.00297
     2  O(17)              0.05336     -32.34691     -11.54218     -10.78977
     3  O(17)              0.03900     -23.64387      -8.43672      -7.88675
     4  H(1)              -0.00113      -5.04212      -1.79915      -1.68187
     5  O(17)              0.00471      -2.85731      -1.01956      -0.95310
 --------------------------------------------------------
       Center         ----  Spin Dipole Couplings  ----
                      3XX-RR        3YY-RR        3ZZ-RR
 --------------------------------------------------------
     1   Atom       -0.381593      0.543554     -0.161961
     2   Atom        0.341185     -0.233339     -0.107846
     3   Atom        0.206161     -0.120600     -0.085561
     4   Atom        0.011822      0.005626     -0.017449
     5   Atom       -1.710503      2.039869     -0.329366
 --------------------------------------------------------
                        XY            XZ            YZ
 --------------------------------------------------------
     1   Atom       -0.099016     -0.023306     -0.039974
     2   Atom       -0.110123      0.403958     -0.057698
     3   Atom       -0.126296      0.232044     -0.075661
     4   Atom       -0.005087     -0.010017      0.000569
     5   Atom        1.488969     -0.105386     -1.497073
 --------------------------------------------------------


 ---------------------------------------------------------------------------------
              Anisotropic Spin Dipole Couplings in Principal Axis System
 ---------------------------------------------------------------------------------

       Atom             a.u.   MegaHertz   Gauss  10(-4) cm-1        Axes

              Baa    -0.3953   -53.046   -18.928   -17.694  0.9871  0.1091  0.1173
     1 C(13)  Bbb    -0.1607   -21.560    -7.693    -7.192 -0.1222  0.0391  0.9917
              Bcc     0.5560    74.606    26.621    24.886 -0.1036  0.9933 -0.0519
 
              Baa    -0.3459    25.027     8.930     8.348 -0.5134 -0.0636  0.8558
     2 O(17)  Bbb    -0.2515    18.199     6.494     6.071  0.0947  0.9870  0.1301
              Bcc     0.5974   -43.227   -15.424   -14.419  0.8529 -0.1478  0.5007
 
              Baa    -0.2143    15.504     5.532     5.172 -0.4592  0.0944  0.8833
     3 O(17)  Bbb    -0.1636    11.834     4.223     3.948  0.2941  0.9544  0.0509
              Bcc     0.3778   -27.339    -9.755    -9.119  0.8383 -0.2831  0.4660
 
              Baa    -0.0206   -10.983    -3.919    -3.663  0.3005  0.0376  0.9530
     4 H(1)   Bbb     0.0035     1.846     0.659     0.616  0.3726  0.9152 -0.1536
              Bcc     0.0171     9.137     3.260     3.048  0.8780 -0.4013 -0.2610
 
              Baa    -2.3284   168.479    60.118    56.199  0.8899 -0.3864 -0.2425
     5 O(17)  Bbb    -0.8361    60.498    21.587    20.180  0.3624  0.2758  0.8903
              Bcc     3.1645  -228.977   -81.705   -76.379  0.2771  0.8801 -0.3855
 

 ---------------------------------------------------------------------------------

 SCFChk:  SCF convergence  3.98D-03 required  1.00D-08


 SCF Error SCF Error SCF Error SCF Error SCF Error SCF Error SCF Error SCF Error

                                    ERROR!!!!

    SCF has not converged.  Gradients and post-SCF results would be GARBAGE!!

 SCF Error SCF Error SCF Error SCF Error SCF Error SCF Error SCF Error SCF Error


 Error termination via Lnk1e in /work/home/ackgydj0bd/apprepo/gaussian/16b.01-none_v1.3/app/g16/l701.exe at Thu Jul  9 10:26:31 2026.
 Job cpu time:       0 days  0 hours  4 minutes 31.6 seconds.
 Elapsed time:       0 days  0 hours  0 minutes  4.8 seconds.
 File lengths (MBytes):  RWF=      6 Int=      0 D2E=      0 Chk=      1 Scr=      1
