 Entering Gaussian System, Link 0=g16
 Input=loop1_O1_07.gjf
 Output=loop1_O1_07.log
 Initial command:
 /work/home/ackgydj0bd/apprepo/gaussian/16b.01-none_v1.3/app/g16/l1.exe "/work/home/ackgydj0bd/apprepo/gaussian/16b.01-none_v1.3/app/g16/scratch/Gau-30967.inp" -scrdir="/work/home/ackgydj0bd/apprepo/gaussian/16b.01-none_v1.3/app/g16/scratch/"
 Entering Link 1 = /work/home/ackgydj0bd/apprepo/gaussian/16b.01-none_v1.3/app/g16/l1.exe PID=     30968.
  
 Copyright (c) 1988-2017, Gaussian, Inc.  All Rights Reserved.
  
 This is part of the Gaussian(R) 16 program.  It is based on
 the Gaussian(R) 09 system (copyright 2009, Gaussian, Inc.),
 the Gaussian(R) 03 system (copyright 2003, Gaussian, Inc.),
 the Gaussian(R) 98 system (copyright 1998, Gaussian, Inc.),
 the Gaussian(R) 94 system (copyright 1995, Gaussian, Inc.),
 the Gaussian 92(TM) system (copyright 1992, Gaussian, Inc.),
 the Gaussian 90(TM) system (copyright 1990, Gaussian, Inc.),
 the Gaussian 88(TM) system (copyright 1988, Gaussian, Inc.),
 the Gaussian 86(TM) system (copyright 1986, Carnegie Mellon
 University), and the Gaussian 82(TM) system (copyright 1983,
 Carnegie Mellon University). Gaussian is a federally registered
 trademark of Gaussian, Inc.
  
 This software contains proprietary and confidential information,
 including trade secrets, belonging to Gaussian, Inc.
  
 This software is provided under written license and may be
 used, copied, transmitted, or stored only in accord with that
 written license.
  
 The following legend is applicable only to US Government
 contracts under FAR:
  
                    RESTRICTED RIGHTS LEGEND
  
 Use, reproduction and disclosure by the US Government is
 subject to restrictions as set forth in subparagraphs (a)
 and (c) of the Commercial Computer Software - Restricted
 Rights clause in FAR 52.227-19.
  
 Gaussian, Inc.
 340 Quinnipiac St., Bldg. 40, Wallingford CT 06492
  
  
 ---------------------------------------------------------------
 Warning -- This program may not be used in any manner that
 competes with the business of Gaussian, Inc. or will provide
 assistance to any competitor of Gaussian, Inc.  The licensee
 of this program is prohibited from giving any competitor of
 Gaussian, Inc. access to this program.  By using this program,
 the user acknowledges that Gaussian, Inc. is engaged in the
 business of creating and licensing software in the field of
 computational chemistry and represents and warrants to the
 licensee that it is not a competitor of Gaussian, Inc. and that
 it will not use this program in any manner prohibited above.
 ---------------------------------------------------------------
  

 Cite this work as:
 Gaussian 16, Revision B.01,
 M. J. Frisch, G. W. Trucks, H. B. Schlegel, G. E. Scuseria, 
 M. A. Robb, J. R. Cheeseman, G. Scalmani, V. Barone, 
 G. A. Petersson, H. Nakatsuji, X. Li, M. Caricato, A. V. Marenich, 
 J. Bloino, B. G. Janesko, R. Gomperts, B. Mennucci, H. P. Hratchian, 
 J. V. Ortiz, A. F. Izmaylov, J. L. Sonnenberg, D. Williams-Young, 
 F. Ding, F. Lipparini, F. Egidi, J. Goings, B. Peng, A. Petrone, 
 T. Henderson, D. Ranasinghe, V. G. Zakrzewski, J. Gao, N. Rega, 
 G. Zheng, W. Liang, M. Hada, M. Ehara, K. Toyota, R. Fukuda, 
 J. Hasegawa, M. Ishida, T. Nakajima, Y. Honda, O. Kitao, H. Nakai, 
 T. Vreven, K. Throssell, J. A. Montgomery, Jr., J. E. Peralta, 
 F. Ogliaro, M. J. Bearpark, J. J. Heyd, E. N. Brothers, K. N. Kudin, 
 V. N. Staroverov, T. A. Keith, R. Kobayashi, J. Normand, 
 K. Raghavachari, A. P. Rendell, J. C. Burant, S. S. Iyengar, 
 J. Tomasi, M. Cossi, J. M. Millam, M. Klene, C. Adamo, R. Cammi, 
 J. W. Ochterski, R. L. Martin, K. Morokuma, O. Farkas, 
 J. B. Foresman, and D. J. Fox, Gaussian, Inc., Wallingford CT, 2016.
 
 ******************************************
 Gaussian 16:  EM64L-G16RevB.01 20-Dec-2017
                 9-Jul-2026 
 ******************************************
 %nproc=64
 Will use up to   64 processors via shared memory.
 -----------------------------------------
 #force b3lyp/3-21G* Geom=PrintInputOrient
 -----------------------------------------
 1/10=7,30=1,38=1/1,3;
 2/9=2000,12=2,17=6,18=5,40=1/2;
 3/5=5,7=1,11=2,25=1,30=1,71=1,74=-5/1,2,3;
 4//1;
 5/5=2,38=5/2;
 6/7=2,8=2,9=2,10=2,28=1/1;
 7/29=1/1,2,3,16;
 1/10=7,30=1/3;
 99//99;
 -------------------------------------------------
 Generated by MDDatasetMaker (Author: Jinzhe Zeng)
 -------------------------------------------------
 Symbolic Z-matrix:
 Charge =  0 Multiplicity = 1
 C                     16.6908   4.59431   20.0701 
 O                     16.6303   5.31596   19.5606 
 O                     17.1916   5.83453   20.2699 
 

 GradGradGradGradGradGradGradGradGradGradGradGradGradGradGradGradGradGrad
 Berny optimization.
 Initialization pass.
 Trust Radius=3.00D-01 FncErr=1.00D-07 GrdErr=1.00D-07 EigMax=2.50D+02 EigMin=1.00D-04
 Number of steps in this run=      2 maximum allowed number of steps=      2.
 GradGradGradGradGradGradGradGradGradGradGradGradGradGradGradGradGradGrad

                          Input orientation:                          
 ---------------------------------------------------------------------
 Center     Atomic      Atomic             Coordinates (Angstroms)
 Number     Number       Type             X           Y           Z
 ---------------------------------------------------------------------
      1          6           0       16.690800    4.594310   20.070100
      2          8           0       16.630300    5.315960   19.560600
      3          8           0       17.191600    5.834530   20.269900
 ---------------------------------------------------------------------
                    Distance matrix (angstroms):
                    1          2          3
     1  C    0.000000
     2  O    0.885454   0.000000
     3  O    1.352356   1.042631   0.000000
 Stoichiometry    CO2
 Framework group  CS[SG(CO2)]
 Deg. of freedom     3
 Full point group                 CS      NOp   2
 Largest Abelian subgroup         CS      NOp   2
 Largest concise Abelian subgroup C1      NOp   1
                         Standard orientation:                         
 ---------------------------------------------------------------------
 Center     Atomic      Atomic             Coordinates (Angstroms)
 Number     Number       Type             X           Y           Z
 ---------------------------------------------------------------------
      1          6           0        0.739012   -0.033590    0.000000
      2          8           0        0.000000    0.454149    0.000000
      3          8           0       -0.554259   -0.428956    0.000000
 ---------------------------------------------------------------------
 Rotational constants (GHZ):         112.4569158          38.2022912          28.5154285
 Standard basis: 3-21G* (6D, 7F)
 There are    21 symmetry adapted cartesian basis functions of A'  symmetry.
 There are     6 symmetry adapted cartesian basis functions of A"  symmetry.
 There are    21 symmetry adapted basis functions of A'  symmetry.
 There are     6 symmetry adapted basis functions of A"  symmetry.
    27 basis functions,    45 primitive gaussians,    27 cartesian basis functions
    11 alpha electrons       11 beta electrons
       nuclear repulsion energy        79.9514084183 Hartrees.
 NAtoms=    3 NActive=    3 NUniq=    3 SFac= 1.00D+00 NAtFMM=   60 NAOKFM=F Big=F
 Integral buffers will be    131072 words long.
 Raffenetti 2 integral format.
 Two-electron integral symmetry is turned on.
 One-electron integrals computed using PRISM.
 PrsmSu:  requested number of processors reduced to:  31 ShMem   1 Linda.
 NBasis=    27 RedAO= T EigKep=  1.88D-02  NBF=    21     6
 NBsUse=    27 1.00D-06 EigRej= -1.00D+00 NBFU=    21     6
 ExpMin= 1.96D-01 ExpMax= 3.22D+02 ExpMxC= 3.22D+02 IAcc=3 IRadAn=         5 AccDes= 0.00D+00
 Harris functional with IExCor=  402 and IRadAn=       5 diagonalized for initial guess.
 HarFok:  IExCor=  402 AccDes= 0.00D+00 IRadAn=         5 IDoV= 1 UseB2=F ITyADJ=14
 ICtDFT=  3500011 ScaDFX=  1.000000  1.000000  1.000000  1.000000
 FoFCou: FMM=F IPFlag=           0 FMFlag=      100000 FMFlg1=           0
         NFxFlg=           0 DoJE=T BraDBF=F KetDBF=T FulRan=T
         wScrn=  0.000000 ICntrl=       500 IOpCl=  0 I1Cent=   200000004 NGrid=           0
         NMat0=    1 NMatS0=      1 NMatT0=    0 NMatD0=    1 NMtDS0=    0 NMtDT0=    0
 Petite list used in FoFCou.
 Initial guess orbital symmetries:
       Occupied  (A') (A') (A') (A') (A') (A") (A') (A') (A') (A')
                 (A")
       Virtual   (A") (A') (A') (A') (A') (A") (A') (A') (A') (A")
                 (A') (A") (A') (A') (A') (A')
 The electronic state of the initial guess is 1-A'.
 Keep R1 ints in memory in symmetry-blocked form, NReq=55332308.
 Requested convergence on RMS density matrix=1.00D-08 within 128 cycles.
 Requested convergence on MAX density matrix=1.00D-06.
 Requested convergence on             energy=1.00D-06.
 No special actions if energy rises.
 Integral accuracy reduced to 1.0D-05 until final iterations.
 Initial convergence to 1.0D-05 achieved.  Increase integral accuracy.
 SCF Done:  E(RB3LYP) =  -186.488450151     A.U. after   12 cycles
            NFock= 12  Conv=0.48D-08     -V/T= 1.9787

 **********************************************************************

            Population analysis using the SCF Density.

 **********************************************************************

 Orbital symmetries:
       Occupied  (A') (A') (A') (A') (A') (A") (A') (A') (A') (A')
                 (A")
       Virtual   (A") (A') (A') (A') (A") (A') (A') (A') (A') (A")
                 (A") (A') (A') (A') (A') (A')
 The electronic state is 1-A'.
 Alpha  occ. eigenvalues --  -19.27987 -19.10014 -10.27037  -1.77316  -1.09928
 Alpha  occ. eigenvalues --   -0.79865  -0.77498  -0.58218  -0.39181  -0.28419
 Alpha  occ. eigenvalues --   -0.27603
 Alpha virt. eigenvalues --    0.02729   0.07541   0.35240   0.44675   0.62849
 Alpha virt. eigenvalues --    0.62960   0.83220   1.28394   1.35075   1.36876
 Alpha virt. eigenvalues --    1.41683   1.43684   1.56731   1.88648   2.87090
 Alpha virt. eigenvalues --    3.26857
          Condensed to atoms (all electrons):
               1          2          3
     1  C    5.654363   0.164368  -0.038863
     2  O    0.164368   8.061082  -0.353725
     3  O   -0.038863  -0.353725   8.740996
 Mulliken charges:
               1
     1  C    0.220132
     2  O    0.128276
     3  O   -0.348408
 Sum of Mulliken charges =   0.00000
 Mulliken charges with hydrogens summed into heavy atoms:
               1
     1  C    0.220132
     2  O    0.128276
     3  O   -0.348408
 Electronic spatial extent (au):  <R**2>=             66.4199
 Charge=              0.0000 electrons
 Dipole moment (field-independent basis, Debye):
    X=             -0.1708    Y=              1.4144    Z=              0.0000  Tot=              1.4247
 Quadrupole moment (field-independent basis, Debye-Ang):
   XX=            -17.7570   YY=            -15.2211   ZZ=            -13.7868
   XY=             -0.1668   XZ=              0.0000   YZ=              0.0000
 Traceless Quadrupole moment (field-independent basis, Debye-Ang):
   XX=             -2.1687   YY=              0.3672   ZZ=              1.8015
   XY=             -0.1668   XZ=              0.0000   YZ=              0.0000
 Octapole moment (field-independent basis, Debye-Ang**2):
  XXX=             -7.4830  YYY=              1.2193  ZZZ=              0.0000  XYY=             -0.7878
  XXY=              1.8752  XXZ=              0.0000  XZZ=             -1.0087  YZZ=              0.7116
  YYZ=              0.0000  XYZ=              0.0000
 Hexadecapole moment (field-independent basis, Debye-Ang**3):
 XXXX=            -45.0631 YYYY=            -21.1318 ZZZZ=             -9.1360 XXXY=             -2.4975
 XXXZ=              0.0000 YYYX=             -2.3458 YYYZ=              0.0000 ZZZX=              0.0000
 ZZZY=              0.0000 XXYY=             -9.9326 XXZZ=             -8.3477 YYZZ=             -5.1644
 XXYZ=              0.0000 YYXZ=              0.0000 ZZXY=             -1.1461
 N-N= 7.995140841833D+01 E-N=-6.007860167653D+02  KE= 1.905504699128D+02
 Symmetry A'   KE= 1.805494392819D+02
 Symmetry A"   KE= 1.000103063091D+01
 PrsmSu:  requested number of processors reduced to:  31 ShMem   1 Linda.
 Calling FoFJK, ICntrl=      2127 FMM=F ISym2X=1 I1Cent= 0 IOpClX= 0 NMat=1 NMatS=1 NMatT=0.
 ***** Axes restored to original set *****
 -------------------------------------------------------------------
 Center     Atomic                   Forces (Hartrees/Bohr)
 Number     Number              X              Y              Z
 -------------------------------------------------------------------
      1        6           0.058501100   -1.610245327    1.000842327
      2        8          -0.647923280    0.967345989   -1.690905363
      3        8           0.589422180    0.642899338    0.690063036
 -------------------------------------------------------------------
 Cartesian Forces:  Max     1.690905363 RMS     1.002754351

 GradGradGradGradGradGradGradGradGradGradGradGradGradGradGradGradGradGrad
 Berny optimization.
 Search for a local minimum.
 Step number   1 out of a maximum of    2
 All quantities printed in internal units (Hartrees-Bohrs-Radians)
 Second derivative matrix not updated -- first step.
 The second derivative matrix:
                          X1        Y1        Z1        X2        Y2
           X1           0.86021
           Y1          -0.47268   6.25824
           Z1           0.01467  -3.76906   3.12524
           X2          -0.08224   0.41408  -0.37685   1.52757
           Y2           0.48660  -5.69436   4.03672  -0.01454   6.41628
           Z2          -0.41725   3.90775  -2.91835   0.94623  -3.04241
           X3          -0.07093  -0.16285  -0.03543  -0.73829  -0.69351
           Y3          -0.23537  -0.49452  -0.14312  -0.62099  -0.65256
           Z3           0.00496  -0.01416   0.01671  -0.96699  -0.86978
                          Z2        X3        Y3        Z3
           Z2           4.37705
           X3          -0.92660   1.51626
           Y3          -0.74081   0.63491   1.21644
           Z3          -1.23510   0.56441   1.00847   1.44199
 ITU=  0
     Eigenvalues ---    1.15610   5.30108  17.20046
 Quadratic step=3.273D-01 exceeds max=3.000D-01 adjusted using Lamda=-4.536D-01.
 Angle between NR and scaled steps=   4.10 degrees.
 Angle between quadratic step and forces=  32.43 degrees.
 ClnCor:  largest displacement from symmetrization is 2.34D-16 for atom     1.
 Linear search not attempted -- first point.
 ClnCor:  largest displacement from symmetrization is 1.78D-15 for atom     1.
 B after Tr=     0.004399    0.037019   -0.012796
         Rot=    1.000000   -0.000280    0.000088    0.000157 Ang=  -0.04 deg.
 Variable       Old X    -DE/DX   Delta X   Delta X   Delta X     New X
                                 (Linear)    (Quad)   (Total)
    X1       31.54104   0.05850   0.00000  -0.02016  -0.01973  31.52131
    Y1        8.68199  -1.61025   0.00000  -0.13221  -0.12634   8.55564
    Z1       37.92699   1.00084   0.00000   0.03778   0.03528  37.96227
    X2       31.42671  -0.64792   0.00000  -0.08768  -0.08659  31.34013
    Y2       10.04571   0.96735   0.00000  -0.01743  -0.01086  10.03485
    Z2       36.96418  -1.69091   0.00000  -0.14621  -0.14792  36.81626
    X3       32.48742   0.58942   0.00000   0.10514   0.10632  32.59373
    Y3       11.02566   0.64290   0.00000   0.13193   0.13721  11.16287
    Z3       38.30456   0.69006   0.00000   0.11349   0.11264  38.41720
         Item               Value     Threshold  Converged?
 Maximum Force            1.690905     0.000450     NO 
 RMS     Force            1.002754     0.000300     NO 
 Maximum Displacement     0.147919     0.001800     NO 
 RMS     Displacement     0.099948     0.001200     NO 
 Predicted change in Energy=-4.013288D-01
 GradGradGradGradGradGradGradGradGradGradGradGradGradGradGradGradGradGrad

 1\1\GINC-H08R06\Force\RB3LYP\3-21G*\C1O2\ACKGYDJ0BD\09-Jul-2026\0\\#fo
 rce b3lyp/3-21G* Geom=PrintInputOrient\\Generated by MDDatasetMaker (A
 uthor: Jinzhe Zeng)\\0,1\C,16.6908,4.59431,20.0701\O,16.6303,5.31596,1
 9.5606\O,17.1916,5.83453,20.2699\\Version=EM64L-G16RevB.01\State=1-A'\
 HF=-186.4884502\RMSD=4.830e-09\RMSF=1.003e+00\Dipole=-0.2542713,0.0749
 147,-0.4938731\Quadrupole=0.8907645,-1.4026939,0.5119294,-0.7278533,-0
 .392387,0.2329038\PG=CS [SG(C1O2)]\\@


          EVOLUTION
 IN THE BEGINNING GOD MADE MAN.
 HE WORKED THE DIRT WITH HIS HANDS.
 THEN GOD DECIDED TO GIVE MAN SCIENCE,
 MAN SHOULD BE USEFUL (LIKE AN APPLIANCE.)
 BUT SOON MAN'S KNOWLEDGE GREW TOO GREAT,
 TO THE HEADING SCIENCE HE COULDN'T RELATE
 SO GOD SAID "LETS HAVE DIFFERENT FIELDS,
 WE'LL DIVIDE THEM UP, SEE WHAT IT YIELDS."
 ENTER PHYSICS, CHEMISTRY, BIO
 THEY SPRANG UP AROUND THE NILE.
 BUT CHEMISTRY SURPASSED THE REST
 FAR AND AWAY IT WAS THE BEST.
 EXPERIMENT WAS GOD'S DECREE
 EXPERIMENT DID CHEMISTS WITH LOTS OF GLEE
 BUT SOON THEIR TESTS BEGAN TO BOG,
 THEY FOUND THEMSELVES DEEP IN A FOG.
 "GIVE US SOME HELP" THEY CRIED TO GOD.
 GOD LOOKED AROUND, THEN GAVE THE NOD.
 ENTER EINSTEIN, HEISENBERG, BOHR,
 REACTION PATHS WERE CLEAR ONCE MORE.
 WITH THEORISTS GOD SEND DIRECTION
 AND THEN HE STOPPED, HE'D MADE PERFECTION.
          -- THOMAS A. HOLME, 1981
 Job cpu time:       0 days  0 hours  2 minutes 47.4 seconds.
 Elapsed time:       0 days  0 hours  0 minutes  3.4 seconds.
 File lengths (MBytes):  RWF=      6 Int=      0 D2E=      0 Chk=      1 Scr=      1
 Normal termination of Gaussian 16 at Thu Jul  9 10:29:50 2026.
