 Entering Gaussian System, Link 0=g16
 Input=loop1_O_04.gjf
 Output=loop1_O_04.log
 Initial command:
 /work/home/ackgydj0bd/apprepo/gaussian/16b.01-none_v1.3/app/g16/l1.exe "/work/home/ackgydj0bd/apprepo/gaussian/16b.01-none_v1.3/app/g16/scratch/Gau-19086.inp" -scrdir="/work/home/ackgydj0bd/apprepo/gaussian/16b.01-none_v1.3/app/g16/scratch/"
 Entering Link 1 = /work/home/ackgydj0bd/apprepo/gaussian/16b.01-none_v1.3/app/g16/l1.exe PID=     19087.
  
 Copyright (c) 1988-2017, Gaussian, Inc.  All Rights Reserved.
  
 This is part of the Gaussian(R) 16 program.  It is based on
 the Gaussian(R) 09 system (copyright 2009, Gaussian, Inc.),
 the Gaussian(R) 03 system (copyright 2003, Gaussian, Inc.),
 the Gaussian(R) 98 system (copyright 1998, Gaussian, Inc.),
 the Gaussian(R) 94 system (copyright 1995, Gaussian, Inc.),
 the Gaussian 92(TM) system (copyright 1992, Gaussian, Inc.),
 the Gaussian 90(TM) system (copyright 1990, Gaussian, Inc.),
 the Gaussian 88(TM) system (copyright 1988, Gaussian, Inc.),
 the Gaussian 86(TM) system (copyright 1986, Carnegie Mellon
 University), and the Gaussian 82(TM) system (copyright 1983,
 Carnegie Mellon University). Gaussian is a federally registered
 trademark of Gaussian, Inc.
  
 This software contains proprietary and confidential information,
 including trade secrets, belonging to Gaussian, Inc.
  
 This software is provided under written license and may be
 used, copied, transmitted, or stored only in accord with that
 written license.
  
 The following legend is applicable only to US Government
 contracts under FAR:
  
                    RESTRICTED RIGHTS LEGEND
  
 Use, reproduction and disclosure by the US Government is
 subject to restrictions as set forth in subparagraphs (a)
 and (c) of the Commercial Computer Software - Restricted
 Rights clause in FAR 52.227-19.
  
 Gaussian, Inc.
 340 Quinnipiac St., Bldg. 40, Wallingford CT 06492
  
  
 ---------------------------------------------------------------
 Warning -- This program may not be used in any manner that
 competes with the business of Gaussian, Inc. or will provide
 assistance to any competitor of Gaussian, Inc.  The licensee
 of this program is prohibited from giving any competitor of
 Gaussian, Inc. access to this program.  By using this program,
 the user acknowledges that Gaussian, Inc. is engaged in the
 business of creating and licensing software in the field of
 computational chemistry and represents and warrants to the
 licensee that it is not a competitor of Gaussian, Inc. and that
 it will not use this program in any manner prohibited above.
 ---------------------------------------------------------------
  

 Cite this work as:
 Gaussian 16, Revision B.01,
 M. J. Frisch, G. W. Trucks, H. B. Schlegel, G. E. Scuseria, 
 M. A. Robb, J. R. Cheeseman, G. Scalmani, V. Barone, 
 G. A. Petersson, H. Nakatsuji, X. Li, M. Caricato, A. V. Marenich, 
 J. Bloino, B. G. Janesko, R. Gomperts, B. Mennucci, H. P. Hratchian, 
 J. V. Ortiz, A. F. Izmaylov, J. L. Sonnenberg, D. Williams-Young, 
 F. Ding, F. Lipparini, F. Egidi, J. Goings, B. Peng, A. Petrone, 
 T. Henderson, D. Ranasinghe, V. G. Zakrzewski, J. Gao, N. Rega, 
 G. Zheng, W. Liang, M. Hada, M. Ehara, K. Toyota, R. Fukuda, 
 J. Hasegawa, M. Ishida, T. Nakajima, Y. Honda, O. Kitao, H. Nakai, 
 T. Vreven, K. Throssell, J. A. Montgomery, Jr., J. E. Peralta, 
 F. Ogliaro, M. J. Bearpark, J. J. Heyd, E. N. Brothers, K. N. Kudin, 
 V. N. Staroverov, T. A. Keith, R. Kobayashi, J. Normand, 
 K. Raghavachari, A. P. Rendell, J. C. Burant, S. S. Iyengar, 
 J. Tomasi, M. Cossi, J. M. Millam, M. Klene, C. Adamo, R. Cammi, 
 J. W. Ochterski, R. L. Martin, K. Morokuma, O. Farkas, 
 J. B. Foresman, and D. J. Fox, Gaussian, Inc., Wallingford CT, 2016.
 
 ******************************************
 Gaussian 16:  EM64L-G16RevB.01 20-Dec-2017
                 9-Jul-2026 
 ******************************************
 %nproc=64
 Will use up to   64 processors via shared memory.
 -----------------------------------------
 #force b3lyp/3-21G* Geom=PrintInputOrient
 -----------------------------------------
 1/10=7,30=1,38=1/1,3;
 2/9=2000,12=2,17=6,18=5,40=1/2;
 3/5=5,7=1,11=2,25=1,30=1,71=1,74=-5/1,2,3;
 4//1;
 5/5=2,38=5/2;
 6/7=2,8=2,9=2,10=2,28=1/1;
 7/29=1/1,2,3,16;
 1/10=7,30=1/3;
 99//99;
 -------------------------------------------------
 Generated by MDDatasetMaker (Author: Jinzhe Zeng)
 -------------------------------------------------
 Symbolic Z-matrix:
 Charge =  0 Multiplicity = 2
 H                     6.67944   2.29809   25.9496 
 O                     7.09483   3.24488   26.1183 
 O                     7.29893   4.41506   26.8535 
 O                     5.70975   2.00391   26.9155 
 

 GradGradGradGradGradGradGradGradGradGradGradGradGradGradGradGradGradGrad
 Berny optimization.
 Initialization pass.
 Trust Radius=3.00D-01 FncErr=1.00D-07 GrdErr=1.00D-07 EigMax=2.50D+02 EigMin=1.00D-04
 Number of steps in this run=      2 maximum allowed number of steps=      2.
 GradGradGradGradGradGradGradGradGradGradGradGradGradGradGradGradGradGrad

                          Input orientation:                          
 ---------------------------------------------------------------------
 Center     Atomic      Atomic             Coordinates (Angstroms)
 Number     Number       Type             X           Y           Z
 ---------------------------------------------------------------------
      1          1           0        6.679440    2.298090   25.949600
      2          8           0        7.094830    3.244880   26.118300
      3          8           0        7.298930    4.415060   26.853500
      4          8           0        5.709750    2.003910   26.915500
 ---------------------------------------------------------------------
                    Distance matrix (angstroms):
                    1          2          3          4
     1  H    0.000000
     2  O    1.047578   0.000000
     3  O    2.383771   1.396960   0.000000
     4  O    1.399930   2.023359   2.888422   0.000000
 Stoichiometry    HO3(2)
 Framework group  C1[X(HO3)]
 Deg. of freedom     6
 Full point group                 C1      NOp   1
 Largest Abelian subgroup         C1      NOp   1
 Largest concise Abelian subgroup C1      NOp   1
                         Standard orientation:                         
 ---------------------------------------------------------------------
 Center     Atomic      Atomic             Coordinates (Angstroms)
 Number     Number       Type             X           Y           Z
 ---------------------------------------------------------------------
      1          1           0        0.705512    0.843960    0.037513
      2          8           0       -0.299319    0.550978   -0.006022
      3          8           0       -1.337583   -0.383598    0.002486
      4          8           0        1.548713   -0.272875   -0.001153
 ---------------------------------------------------------------------
 Rotational constants (GHZ):          55.5370861           7.3335066           6.4784201
 Standard basis: 3-21G* (6D, 7F)
 There are    29 symmetry adapted cartesian basis functions of A   symmetry.
 There are    29 symmetry adapted basis functions of A   symmetry.
    29 basis functions,    48 primitive gaussians,    29 cartesian basis functions
    13 alpha electrons       12 beta electrons
       nuclear repulsion energy        61.5480886591 Hartrees.
 NAtoms=    4 NActive=    4 NUniq=    4 SFac= 1.00D+00 NAtFMM=   60 NAOKFM=F Big=F
 Integral buffers will be    131072 words long.
 Raffenetti 2 integral format.
 Two-electron integral symmetry is turned on.
 One-electron integrals computed using PRISM.
 PrsmSu:  requested number of processors reduced to:  31 ShMem   1 Linda.
 NBasis=    29 RedAO= T EigKep=  7.37D-02  NBF=    29
 NBsUse=    29 1.00D-06 EigRej= -1.00D+00 NBFU=    29
 ExpMin= 1.83D-01 ExpMax= 3.22D+02 ExpMxC= 3.22D+02 IAcc=3 IRadAn=         5 AccDes= 0.00D+00
 Harris functional with IExCor=  402 and IRadAn=       5 diagonalized for initial guess.
 HarFok:  IExCor=  402 AccDes= 0.00D+00 IRadAn=         5 IDoV= 1 UseB2=F ITyADJ=14
 ICtDFT=  3500011 ScaDFX=  1.000000  1.000000  1.000000  1.000000
 FoFCou: FMM=F IPFlag=           0 FMFlag=      100000 FMFlg1=           0
         NFxFlg=           0 DoJE=T BraDBF=F KetDBF=T FulRan=T
         wScrn=  0.000000 ICntrl=       500 IOpCl=  0 I1Cent=   200000004 NGrid=           0
         NMat0=    1 NMatS0=      1 NMatT0=    0 NMatD0=    1 NMtDS0=    0 NMtDT0=    0
 Petite list used in FoFCou.
 Initial guess <Sx>= 0.0000 <Sy>= 0.0000 <Sz>= 0.5000 <S**2>= 0.7500 S= 0.5000
 Keep R1 and R2 ints in memory in canonical form, NReq=55458564.
 Requested convergence on RMS density matrix=1.00D-08 within 128 cycles.
 Requested convergence on MAX density matrix=1.00D-06.
 Requested convergence on             energy=1.00D-06.
 No special actions if energy rises.
 Integral accuracy reduced to 1.0D-05 until final iterations.
 Problem detected with inexpensive integrals.
 Switching to full accuracy and repeating last cycle.
 Rare condition: small coef for last iteration:  0.000D+00
 Rare condition: small coef for last iteration:  0.000D+00
 Rare condition: small coef for last iteration:  0.000D+00
 Rare condition: small coef for last iteration:  0.000D+00
 Rare condition: small coef for last iteration:  0.000D+00
 Rare condition: small coef for last iteration:  0.000D+00
 Rare condition: small coef for last iteration:  0.000D+00
 SCF Done:  E(UB3LYP) =  -224.676996156     A.U. after   39 cycles
            NFock= 39  Conv=0.57D-08     -V/T= 2.0082
 <Sx>= 0.0000 <Sy>= 0.0000 <Sz>= 0.5000 <S**2>= 1.5364 S= 0.8366
 <L.S>= 0.000000000000E+00
 Annihilation of the first spin contaminant:
 S**2 before annihilation     1.5364,   after     0.7659

 **********************************************************************

            Population analysis using the SCF Density.

 **********************************************************************

 Orbital symmetries:
 Alpha Orbitals:
       Occupied  (A) (A) (A) (A) (A) (A) (A) (A) (A) (A) (A) (A)
                 (A)
       Virtual   (A) (A) (A) (A) (A) (A) (A) (A) (A) (A) (A) (A)
                 (A) (A) (A) (A)
 Beta  Orbitals:
       Occupied  (A) (A) (A) (A) (A) (A) (A) (A) (A) (A) (A) (A)
       Virtual   (A) (A) (A) (A) (A) (A) (A) (A) (A) (A) (A) (A)
                 (A) (A) (A) (A) (A)
 The electronic state is 2-A.
 Alpha  occ. eigenvalues --  -19.20820 -19.20317 -19.05373  -1.19865  -0.95853
 Alpha  occ. eigenvalues --   -0.83954  -0.59937  -0.51207  -0.50100  -0.35618
 Alpha  occ. eigenvalues --   -0.35428  -0.29453  -0.26250
 Alpha virt. eigenvalues --   -0.11090  -0.06084   0.17924   0.80154   1.22730
 Alpha virt. eigenvalues --    1.23998   1.36790   1.38270   1.44359   1.49235
 Alpha virt. eigenvalues --    1.50925   1.60970   1.83650   2.31683   2.43514
 Alpha virt. eigenvalues --    2.76918
  Beta  occ. eigenvalues --  -19.18836 -19.17979 -19.06583  -1.14923  -0.93479
  Beta  occ. eigenvalues --   -0.84231  -0.57193  -0.44383  -0.42017  -0.33786
  Beta  occ. eigenvalues --   -0.30212  -0.27433
  Beta virt. eigenvalues --   -0.16626  -0.16008  -0.03009   0.19138   0.80224
  Beta virt. eigenvalues --    1.25717   1.28197   1.40850   1.41059   1.41538
  Beta virt. eigenvalues --    1.50971   1.52055   1.61753   1.85361   2.35626
  Beta virt. eigenvalues --    2.41561   2.80300
          Condensed to atoms (all electrons):
               1          2          3          4
     1  H    0.379979   0.052103   0.003727   0.130030
     2  O    0.052103   8.050686   0.120773  -0.015734
     3  O    0.003727   0.120773   7.830552  -0.001547
     4  O    0.130030  -0.015734  -0.001547   8.160080
          Atomic-Atomic Spin Densities.
               1          2          3          4
     1  H   -0.004433  -0.041647   0.002922   0.033932
     2  O   -0.041647   0.901347  -0.142693  -0.035480
     3  O    0.002922  -0.142693   1.014591   0.001957
     4  O    0.033932  -0.035480   0.001957  -0.549486
 Mulliken charges and spin densities:
               1          2
     1  H    0.434161  -0.009226
     2  O   -0.207827   0.681526
     3  O    0.046494   0.876777
     4  O   -0.272828  -0.549078
 Sum of Mulliken charges =   0.00000   1.00000
 Mulliken charges and spin densities with hydrogens summed into heavy atoms:
               1          2
     2  O    0.226334   0.672301
     3  O    0.046494   0.876777
     4  O   -0.272828  -0.549078
 Electronic spatial extent (au):  <R**2>=            177.0108
 Charge=              0.0000 electrons
 Dipole moment (field-independent basis, Debye):
    X=             -0.6486    Y=              1.3578    Z=              0.0933  Tot=              1.5077
 Quadrupole moment (field-independent basis, Debye-Ang):
   XX=            -17.1444   YY=            -14.7621   ZZ=            -15.8228
   XY=              2.0484   XZ=              0.0483   YZ=              0.0985
 Traceless Quadrupole moment (field-independent basis, Debye-Ang):
   XX=             -1.2347   YY=              1.1477   ZZ=              0.0870
   XY=              2.0484   XZ=              0.0483   YZ=              0.0985
 Octapole moment (field-independent basis, Debye-Ang**2):
  XXX=             -2.8191  YYY=              1.1571  ZZZ=              0.0184  XYY=              0.6836
  XXY=              1.0807  XXZ=              0.0849  XZZ=             -1.2522  YZZ=              0.0618
  YYZ=              0.0546  XYZ=              0.0540
 Hexadecapole moment (field-independent basis, Debye-Ang**3):
 XXXX=           -136.0157 YYYY=            -25.8442 ZZZZ=             -9.3714 XXXY=              3.2314
 XXXZ=              0.0833 YYYX=              1.9700 YYYZ=              0.0863 ZZZX=             -0.0016
 ZZZY=              0.0240 XXYY=            -26.5754 XXZZ=            -25.4917 YYZZ=             -6.0862
 XXYZ=              0.0645 YYXZ=              0.0227 ZZXY=              0.5082
 N-N= 6.154808865907D+01 E-N=-6.542725149390D+02  KE= 2.228392232352D+02
                          Isotropic Fermi Contact Couplings
        Atom                 a.u.       MegaHertz       Gauss      10(-4) cm-1
     1  H(1)              -0.01676     -74.92921     -26.73661     -24.99369
     2  O(17)              0.14601     -88.51044     -31.58273     -29.52390
     3  O(17)              0.11523     -69.85479     -24.92593     -23.30105
     4  O(17)             -0.06921      41.95475      14.97050      13.99460
 --------------------------------------------------------
       Center         ----  Spin Dipole Couplings  ----
                      3XX-RR        3YY-RR        3ZZ-RR
 --------------------------------------------------------
     1   Atom        0.127652     -0.072043     -0.055610
     2   Atom       -0.356585     -0.308872      0.665457
     3   Atom       -0.588067     -1.472304      2.060370
     4   Atom       -2.084726      1.046871      1.037855
 --------------------------------------------------------
                        XY            XZ            YZ
 --------------------------------------------------------
     1   Atom        0.096375      0.006764      0.001935
     2   Atom       -1.087130     -0.005815     -0.001278
     3   Atom       -0.777328     -0.036249      0.028252
     4   Atom       -2.652263     -0.094965     -0.020355
 --------------------------------------------------------


 ---------------------------------------------------------------------------------
              Anisotropic Spin Dipole Couplings in Principal Axis System
 ---------------------------------------------------------------------------------

       Atom             a.u.   MegaHertz   Gauss  10(-4) cm-1        Axes

              Baa    -0.1110   -59.212   -21.128   -19.751 -0.3748  0.9270  0.0134
     1 H(1)   Bbb    -0.0558   -29.783   -10.627    -9.935 -0.0241 -0.0242  0.9994
              Bcc     0.1668    88.995    31.756    29.685  0.9268  0.3742  0.0314
 
              Baa    -1.4201   102.760    36.667    34.277  0.7148  0.6993  0.0024
     2 O(17)  Bbb     0.6654   -48.145   -17.179   -16.059  0.0229 -0.0269  0.9994
              Bcc     0.7548   -54.615   -19.488   -18.218 -0.6989  0.7143  0.0353
 
              Baa    -1.9245   139.252    49.689    46.450  0.5028  0.8644 -0.0016
     3 O(17)  Bbb    -0.1369     9.903     3.534     3.303  0.8643 -0.5026  0.0207
              Bcc     2.0613  -149.156   -53.223   -49.753 -0.0171  0.0118  0.9998
 
              Baa    -3.6007   260.548    92.970    86.909  0.8683  0.4956  0.0200
     4 O(17)  Bbb     1.0391   -75.191   -26.830   -25.081 -0.0077 -0.0267  0.9996
              Bcc     2.5616  -185.356   -66.140   -61.828 -0.4960  0.8681  0.0193
 

 ---------------------------------------------------------------------------------

 PrsmSu:  requested number of processors reduced to:  31 ShMem   1 Linda.
 Calling FoFJK, ICntrl=      2127 FMM=F ISym2X=0 I1Cent= 0 IOpClX= 1 NMat=1 NMatS=1 NMatT=0.
 ***** Axes restored to original set *****
 -------------------------------------------------------------------
 Center     Atomic                   Forces (Hartrees/Bohr)
 Number     Number              X              Y              Z
 -------------------------------------------------------------------
      1        1          -0.066903977   -0.066211248    0.039094716
      2        8           0.056324112    0.100011034   -0.001463329
      3        8          -0.010013579   -0.030362281   -0.009779852
      4        8           0.020593444   -0.003437505   -0.027851535
 -------------------------------------------------------------------
 Cartesian Forces:  Max     0.100011034 RMS     0.046453043

 GradGradGradGradGradGradGradGradGradGradGradGradGradGradGradGradGradGrad
 Berny optimization.
 Search for a local minimum.
 Step number   1 out of a maximum of    2
 All quantities printed in internal units (Hartrees-Bohrs-Radians)
 Second derivative matrix not updated -- first step.
 The second derivative matrix:
                          X1        Y1        Z1        X2        Y2
           X1           0.07274
           Y1           0.14301   0.32861
           Z1           0.00845   0.06053   0.04161
           X2          -0.08172  -0.14197   0.00780   0.10902
           Y2          -0.14810  -0.32802  -0.05133   0.20830   0.65382
           Z2           0.00213  -0.06176  -0.06077   0.00710   0.25026
           X3           0.00898  -0.00104  -0.01625  -0.02729  -0.06021
           Y3           0.00508  -0.00059  -0.00920  -0.06633  -0.32580
           Z3          -0.01058   0.00123   0.01916  -0.01490  -0.19893
           X4           0.00000   0.00000   0.00000   0.00000   0.00000
           Y4           0.00000   0.00000   0.00000   0.00000   0.00000
           Z4           0.00000   0.00000   0.00000   0.00000   0.00000
                          Z2        X3        Y3        Z3        X4
           Z2           0.21947
           X3          -0.00923   0.01832
           Y3          -0.18850   0.06125   0.32639
           Z3          -0.15870   0.02548   0.19770   0.13954
           X4           0.00000   0.00000   0.00000   0.00000   1.00000
           Y4           0.00000   0.00000   0.00000   0.00000   0.00000
           Z4           0.00000   0.00000   0.00000   0.00000   0.00000
                          Y4        Z4
           Y4           1.00000
           Z4           0.00000   1.00000
 ITU=  0
     Eigenvalues ---    0.00612   0.09765   0.23588   0.41772   0.70493
     Eigenvalues ---    1.23875
 Quadratic step=1.142D+00 exceeds max=3.000D-01 adjusted using Lamda=-1.659D-01.
 Angle between NR and scaled steps=  45.41 degrees.
 Angle between quadratic step and forces=  41.94 degrees.
 Linear search not attempted -- first point.
 B after Tr=     0.326445    0.428945   -0.151455
         Rot=    0.999976   -0.005172    0.002527   -0.003919 Ang=  -0.80 deg.
 Variable       Old X    -DE/DX   Delta X   Delta X   Delta X     New X
                                 (Linear)    (Quad)   (Total)
    X1       12.62231  -0.06690   0.00000  -0.18961  -0.14433  12.47798
    Y1        4.34276  -0.06621   0.00000  -0.05268  -0.03729   4.30547
    Z1       49.03764   0.03909   0.00000   0.19922   0.15214  49.18978
    X2       13.40729   0.05632   0.00000   0.06444   0.09433  13.50161
    Y2        6.13193   0.10001   0.00000   0.05920   0.08171   6.21365
    Z2       49.35643  -0.00146   0.00000  -0.03899  -0.06115  49.29528
    X3       13.79298  -0.01001   0.00000  -0.01778  -0.01177  13.78121
    Y3        8.34325  -0.03036   0.00000  -0.02929  -0.01939   8.32387
    Z3       50.74576  -0.00978   0.00000   0.00012   0.00133  50.74709
    X4       10.78986   0.02059   0.00000   0.02037   0.06178  10.85164
    Y4        3.78684  -0.00344   0.00000  -0.01128  -0.02504   3.76180
    Z4       50.86292  -0.02785   0.00000  -0.03156  -0.09232  50.77060
         Item               Value     Threshold  Converged?
 Maximum Force            0.100011     0.000450     NO 
 RMS     Force            0.046453     0.000300     NO 
 Maximum Displacement     0.152142     0.001800     NO 
 RMS     Displacement     0.080708     0.001200     NO 
 Predicted change in Energy=-1.976494D-02
 GradGradGradGradGradGradGradGradGradGradGradGradGradGradGradGradGradGrad

 1\1\GINC-H08R06\Force\UB3LYP\3-21G*\H1O3(2)\ACKGYDJ0BD\09-Jul-2026\0\\
 #force b3lyp/3-21G* Geom=PrintInputOrient\\Generated by MDDatasetMaker
  (Author: Jinzhe Zeng)\\0,2\H,6.67944,2.29809,25.9496\O,7.09483,3.2448
 8,26.1183\O,7.29893,4.41506,26.8535\O,5.70975,2.00391,26.9155\\Version
 =EM64L-G16RevB.01\State=2-A\HF=-224.6769962\S2=1.536435\S2-1=0.\S2A=0.
 765863\RMSD=5.750e-09\RMSF=4.645e-02\Dipole=0.3929864,0.010554,-0.4441
 781\Quadrupole=-0.8161073,0.3986609,0.4174464,-0.8404434,0.4767431,1.2
 962141\PG=C01 [X(H1O3)]\\@


 A MUSTACHE HAIR ACROSS A CHIP IS LIKE A REDWOOD
 TREE FALLING THROUGH A HOUSING PROJECT.
 - AN IBM MANAGER IN EAST FISHKILL, NEW YORK
   AS QUOTED IN "FROM SANDS TO CIRCUITS", IBM INNOVATION JANUARY 1985.
 Job cpu time:       0 days  0 hours  3 minutes 13.6 seconds.
 Elapsed time:       0 days  0 hours  0 minutes  3.8 seconds.
 File lengths (MBytes):  RWF=      6 Int=      0 D2E=      0 Chk=      1 Scr=      1
 Normal termination of Gaussian 16 at Thu Jul  9 10:29:02 2026.
