 Entering Gaussian System, Link 0=g16
 Input=loop1_C1111_09.gjf
 Output=loop1_C1111_09.log
 Initial command:
 /work/home/ackgydj0bd/apprepo/gaussian/16b.01-none_v1.3/app/g16/l1.exe "/work/home/ackgydj0bd/apprepo/gaussian/16b.01-none_v1.3/app/g16/scratch/Gau-252779.inp" -scrdir="/work/home/ackgydj0bd/apprepo/gaussian/16b.01-none_v1.3/app/g16/scratch/"
 Entering Link 1 = /work/home/ackgydj0bd/apprepo/gaussian/16b.01-none_v1.3/app/g16/l1.exe PID=    252780.
  
 Copyright (c) 1988-2017, Gaussian, Inc.  All Rights Reserved.
  
 This is part of the Gaussian(R) 16 program.  It is based on
 the Gaussian(R) 09 system (copyright 2009, Gaussian, Inc.),
 the Gaussian(R) 03 system (copyright 2003, Gaussian, Inc.),
 the Gaussian(R) 98 system (copyright 1998, Gaussian, Inc.),
 the Gaussian(R) 94 system (copyright 1995, Gaussian, Inc.),
 the Gaussian 92(TM) system (copyright 1992, Gaussian, Inc.),
 the Gaussian 90(TM) system (copyright 1990, Gaussian, Inc.),
 the Gaussian 88(TM) system (copyright 1988, Gaussian, Inc.),
 the Gaussian 86(TM) system (copyright 1986, Carnegie Mellon
 University), and the Gaussian 82(TM) system (copyright 1983,
 Carnegie Mellon University). Gaussian is a federally registered
 trademark of Gaussian, Inc.
  
 This software contains proprietary and confidential information,
 including trade secrets, belonging to Gaussian, Inc.
  
 This software is provided under written license and may be
 used, copied, transmitted, or stored only in accord with that
 written license.
  
 The following legend is applicable only to US Government
 contracts under FAR:
  
                    RESTRICTED RIGHTS LEGEND
  
 Use, reproduction and disclosure by the US Government is
 subject to restrictions as set forth in subparagraphs (a)
 and (c) of the Commercial Computer Software - Restricted
 Rights clause in FAR 52.227-19.
  
 Gaussian, Inc.
 340 Quinnipiac St., Bldg. 40, Wallingford CT 06492
  
  
 ---------------------------------------------------------------
 Warning -- This program may not be used in any manner that
 competes with the business of Gaussian, Inc. or will provide
 assistance to any competitor of Gaussian, Inc.  The licensee
 of this program is prohibited from giving any competitor of
 Gaussian, Inc. access to this program.  By using this program,
 the user acknowledges that Gaussian, Inc. is engaged in the
 business of creating and licensing software in the field of
 computational chemistry and represents and warrants to the
 licensee that it is not a competitor of Gaussian, Inc. and that
 it will not use this program in any manner prohibited above.
 ---------------------------------------------------------------
  

 Cite this work as:
 Gaussian 16, Revision B.01,
 M. J. Frisch, G. W. Trucks, H. B. Schlegel, G. E. Scuseria, 
 M. A. Robb, J. R. Cheeseman, G. Scalmani, V. Barone, 
 G. A. Petersson, H. Nakatsuji, X. Li, M. Caricato, A. V. Marenich, 
 J. Bloino, B. G. Janesko, R. Gomperts, B. Mennucci, H. P. Hratchian, 
 J. V. Ortiz, A. F. Izmaylov, J. L. Sonnenberg, D. Williams-Young, 
 F. Ding, F. Lipparini, F. Egidi, J. Goings, B. Peng, A. Petrone, 
 T. Henderson, D. Ranasinghe, V. G. Zakrzewski, J. Gao, N. Rega, 
 G. Zheng, W. Liang, M. Hada, M. Ehara, K. Toyota, R. Fukuda, 
 J. Hasegawa, M. Ishida, T. Nakajima, Y. Honda, O. Kitao, H. Nakai, 
 T. Vreven, K. Throssell, J. A. Montgomery, Jr., J. E. Peralta, 
 F. Ogliaro, M. J. Bearpark, J. J. Heyd, E. N. Brothers, K. N. Kudin, 
 V. N. Staroverov, T. A. Keith, R. Kobayashi, J. Normand, 
 K. Raghavachari, A. P. Rendell, J. C. Burant, S. S. Iyengar, 
 J. Tomasi, M. Cossi, J. M. Millam, M. Klene, C. Adamo, R. Cammi, 
 J. W. Ochterski, R. L. Martin, K. Morokuma, O. Farkas, 
 J. B. Foresman, and D. J. Fox, Gaussian, Inc., Wallingford CT, 2016.
 
 ******************************************
 Gaussian 16:  EM64L-G16RevB.01 20-Dec-2017
                 9-Jul-2026 
 ******************************************
 %nproc=64
 Will use up to   64 processors via shared memory.
 -----------------------------------------
 #force b3lyp/3-21G* Geom=PrintInputOrient
 -----------------------------------------
 1/10=7,30=1,38=1/1,3;
 2/9=2000,12=2,17=6,18=5,40=1/2;
 3/5=5,7=1,11=2,25=1,30=1,71=1,74=-5/1,2,3;
 4//1;
 5/5=2,38=5/2;
 6/7=2,8=2,9=2,10=2,28=1/1;
 7/29=1/1,2,3,16;
 1/10=7,30=1/3;
 99//99;
 -------------------------------------------------
 Generated by MDDatasetMaker (Author: Jinzhe Zeng)
 -------------------------------------------------
 Symbolic Z-matrix:
 Charge =  0 Multiplicity = 1
 C                     19.812    11.808    15.598 
 H                     19.999    12.292    16.534 
 H                     18.848    11.345    15.622 
 H                     20.562    11.064    15.424 
 H                     19.84     12.533    14.811 
 

 GradGradGradGradGradGradGradGradGradGradGradGradGradGradGradGradGradGrad
 Berny optimization.
 Initialization pass.
 Trust Radius=3.00D-01 FncErr=1.00D-07 GrdErr=1.00D-07 EigMax=2.50D+02 EigMin=1.00D-04
 Number of steps in this run=      2 maximum allowed number of steps=      2.
 GradGradGradGradGradGradGradGradGradGradGradGradGradGradGradGradGradGrad

                          Input orientation:                          
 ---------------------------------------------------------------------
 Center     Atomic      Atomic             Coordinates (Angstroms)
 Number     Number       Type             X           Y           Z
 ---------------------------------------------------------------------
      1          6           0       19.812000   11.808000   15.598000
      2          1           0       19.999000   12.292000   16.534000
      3          1           0       18.848000   11.345000   15.622000
      4          1           0       20.562000   11.064000   15.424000
      5          1           0       19.840000   12.533000   14.811000
 ---------------------------------------------------------------------
                    Distance matrix (angstroms):
                    1          2          3          4          5
     1  C    0.000000
     2  H    1.070197   0.000000
     3  H    1.069692   1.747385   0.000000
     4  H    1.070660   1.748443   1.748131   0.000000
     5  H    1.070410   1.747023   1.747321   1.747860   0.000000
 Stoichiometry    CH4
 Framework group  C1[X(CH4)]
 Deg. of freedom     9
 Full point group                 C1      NOp   1
 Largest Abelian subgroup         C1      NOp   1
 Largest concise Abelian subgroup C1      NOp   1
                         Standard orientation:                         
 ---------------------------------------------------------------------
 Center     Atomic      Atomic             Coordinates (Angstroms)
 Number     Number       Type             X           Y           Z
 ---------------------------------------------------------------------
      1          6           0        0.000044    0.000201   -0.000132
      2          1           0       -0.568131   -0.486976   -0.765088
      3          1           0       -0.266939    1.035331    0.038168
      4          1           0        1.044480   -0.092114   -0.216796
      5          1           0       -0.209676   -0.457449    0.944511
 ---------------------------------------------------------------------
 Rotational constants (GHZ):         164.2650500         164.1504231         164.1030646
 Standard basis: 3-21G* (6D, 7F)
 There are    17 symmetry adapted cartesian basis functions of A   symmetry.
 There are    17 symmetry adapted basis functions of A   symmetry.
    17 basis functions,    27 primitive gaussians,    17 cartesian basis functions
     5 alpha electrons        5 beta electrons
       nuclear repulsion energy        13.6834552546 Hartrees.
 NAtoms=    5 NActive=    5 NUniq=    5 SFac= 1.00D+00 NAtFMM=   60 NAOKFM=F Big=F
 Integral buffers will be    131072 words long.
 Raffenetti 2 integral format.
 Two-electron integral symmetry is turned on.
 One-electron integrals computed using PRISM.
 PrsmSu:  requested number of processors reduced to:  31 ShMem   1 Linda.
 NBasis=    17 RedAO= T EigKep=  3.16D-02  NBF=    17
 NBsUse=    17 1.00D-06 EigRej= -1.00D+00 NBFU=    17
 ExpMin= 1.83D-01 ExpMax= 1.72D+02 ExpMxC= 1.72D+02 IAcc=3 IRadAn=         5 AccDes= 0.00D+00
 Harris functional with IExCor=  402 and IRadAn=       5 diagonalized for initial guess.
 HarFok:  IExCor=  402 AccDes= 0.00D+00 IRadAn=         5 IDoV= 1 UseB2=F ITyADJ=14
 ICtDFT=  3500011 ScaDFX=  1.000000  1.000000  1.000000  1.000000
 FoFCou: FMM=F IPFlag=           0 FMFlag=      100000 FMFlg1=           0
         NFxFlg=           0 DoJE=T BraDBF=F KetDBF=T FulRan=T
         wScrn=  0.000000 ICntrl=       500 IOpCl=  0 I1Cent=   200000004 NGrid=           0
         NMat0=    1 NMatS0=      1 NMatT0=    0 NMatD0=    1 NMtDS0=    0 NMtDT0=    0
 Petite list used in FoFCou.
 Keep R1 ints in memory in canonical form, NReq=55236554.
 Requested convergence on RMS density matrix=1.00D-08 within 128 cycles.
 Requested convergence on MAX density matrix=1.00D-06.
 Requested convergence on             energy=1.00D-06.
 No special actions if energy rises.
 Integral accuracy reduced to 1.0D-05 until final iterations.
 Initial convergence to 1.0D-05 achieved.  Increase integral accuracy.
 SCF Done:  E(RB3LYP) =  -40.3001904991     A.U. after    8 cycles
            NFock=  8  Conv=0.56D-08     -V/T= 2.0076

 **********************************************************************

            Population analysis using the SCF Density.

 **********************************************************************

 Orbital symmetries:
       Occupied  (A) (A) (A) (A) (A)
       Virtual   (A) (A) (A) (A) (A) (A) (A) (A) (A) (A) (A) (A)
 The electronic state is 1-A.
 Alpha  occ. eigenvalues --  -10.09024  -0.69699  -0.39301  -0.39289  -0.39269
 Alpha virt. eigenvalues --    0.15264   0.20178   0.20188   0.20206   0.69606
 Alpha virt. eigenvalues --    0.69616   0.69646   1.05713   1.07447   1.07469
 Alpha virt. eigenvalues --    1.07511   1.70657
          Condensed to atoms (all electrons):
               1          2          3          4          5
     1  C    5.301564   0.370440   0.370514   0.370473   0.370367
     2  H    0.370440   0.513971  -0.026760  -0.026679  -0.026825
     3  H    0.370514  -0.026760   0.513708  -0.026700  -0.026769
     4  H    0.370473  -0.026679  -0.026700   0.513950  -0.026753
     5  H    0.370367  -0.026825  -0.026769  -0.026753   0.514191
 Mulliken charges:
               1
     1  C   -0.783358
     2  H    0.195853
     3  H    0.196007
     4  H    0.195710
     5  H    0.195788
 Sum of Mulliken charges =   0.00000
 Mulliken charges with hydrogens summed into heavy atoms:
               1
     1  C    0.000000
 Electronic spatial extent (au):  <R**2>=             34.6388
 Charge=              0.0000 electrons
 Dipole moment (field-independent basis, Debye):
    X=             -0.0008    Y=             -0.0003    Z=              0.0006  Tot=              0.0010
 Quadrupole moment (field-independent basis, Debye-Ang):
   XX=             -8.1927   YY=             -8.1939   ZZ=             -8.1972
   XY=             -0.0003   XZ=              0.0003   YZ=              0.0003
 Traceless Quadrupole moment (field-independent basis, Debye-Ang):
   XX=              0.0019   YY=              0.0007   ZZ=             -0.0026
   XY=             -0.0003   XZ=              0.0003   YZ=              0.0003
 Octapole moment (field-independent basis, Debye-Ang**2):
  XXX=              0.6709  YYY=              0.6520  ZZZ=              0.2789  XYY=             -0.3316
  XXY=             -0.1478  XXZ=             -0.3182  XZZ=             -0.3419  YZZ=             -0.5036
  YYZ=              0.0403  XYZ=             -0.0804
 Hexadecapole moment (field-independent basis, Debye-Ang**3):
 XXXX=            -13.9834 YYYY=            -14.0263 ZZZZ=            -14.1480 XXXY=             -0.0342
 XXXZ=             -0.1240 YYYX=             -0.2275 YYYZ=              0.0441 ZZZX=              0.0726
 ZZZY=             -0.1780 XXYY=             -4.9406 XXZZ=             -4.8254 YYZZ=             -4.7716
 XXYZ=              0.1354 YYXZ=              0.0526 ZZXY=              0.2602
 N-N= 1.368345525463D+01 E-N=-1.200059519452D+02  KE= 3.999786268393D+01
 PrsmSu:  requested number of processors reduced to:  31 ShMem   1 Linda.
 Calling FoFJK, ICntrl=      2127 FMM=F ISym2X=0 I1Cent= 0 IOpClX= 0 NMat=1 NMatS=1 NMatT=0.
 ***** Axes restored to original set *****
 -------------------------------------------------------------------
 Center     Atomic                   Forces (Hartrees/Bohr)
 Number     Number              X              Y              Z
 -------------------------------------------------------------------
      1        6           0.000558001    0.000194349   -0.000231161
      2        1           0.002919249    0.007360115    0.014496653
      3        1          -0.015172114   -0.007356307    0.000386004
      4        1           0.011287194   -0.011255907   -0.002554970
      5        1           0.000407670    0.011057749   -0.012096526
 -------------------------------------------------------------------
 Cartesian Forces:  Max     0.015172114 RMS     0.008513112

 GradGradGradGradGradGradGradGradGradGradGradGradGradGradGradGradGradGrad
 Berny optimization.
 Search for a local minimum.
 Step number   1 out of a maximum of    2
 All quantities printed in internal units (Hartrees-Bohrs-Radians)
 Second derivative matrix not updated -- first step.
 The second derivative matrix:
                          X1        Y1        Z1        X2        Y2
           X1           0.70854
           Y1           0.00045   0.70769
           Z1          -0.00011   0.00042   0.70733
           X2          -0.08847  -0.02309  -0.04469   0.06874
           Y2          -0.02311  -0.13924  -0.11583   0.02472   0.12310
           Z2          -0.04470  -0.11577  -0.30323   0.04782   0.12380
           X3          -0.31766  -0.11434   0.00596   0.00477   0.00141
           Y3          -0.11428  -0.13447   0.00279  -0.01163  -0.00352
           Z3           0.00594   0.00278  -0.07963  -0.03280  -0.01113
           X4          -0.22278   0.14214   0.03322   0.01385  -0.00965
           Y4           0.14211  -0.22045  -0.03302   0.00756  -0.00508
           Z4           0.03324  -0.03305  -0.08707   0.02738  -0.01986
           X5          -0.07963  -0.00515   0.00561   0.00111   0.00663
           Y5          -0.00517  -0.21352   0.14565   0.00245   0.02474
           Z5           0.00563   0.14561  -0.23741   0.00229   0.02303
                          Z2        X3        Y3        Z3        X4
           Z2           0.29849
           X3          -0.00168   0.31381
           Y3           0.00414   0.12227   0.11795
           Z3           0.01231  -0.00636  -0.00300   0.05932
           X4           0.00222  -0.01177   0.02476   0.00461   0.21240
           Y4           0.00112  -0.01175   0.02469   0.00449  -0.15204
           Z4           0.00480  -0.00052   0.00112   0.00066  -0.03555
           X5          -0.00365   0.01086  -0.02112   0.02861   0.00831
           Y5          -0.01328   0.00241  -0.00466   0.00686  -0.00521
           Z5          -0.01237   0.00260  -0.00504   0.00734  -0.00450
                          Y4        Z4        X5        Y5        Z5
           Y4           0.20995
           Z4           0.03530   0.06729
           X5           0.01412  -0.02455   0.05934
           Y5          -0.00911   0.01648   0.00553   0.20254
           Z5          -0.00789   0.01431  -0.00602  -0.15572   0.22812
 ITU=  0
     Eigenvalues ---    0.11734   0.11736   0.14136   0.14144   0.14152
     Eigenvalues ---    0.37200   0.86818   0.86893   0.87030
 Angle between quadratic step and forces=   1.17 degrees.
 Linear search not attempted -- first point.
 B after Tr=     0.000054    0.000135   -0.000064
         Rot=    1.000000    0.000000    0.000000    0.000000 Ang=   0.00 deg.
 Variable       Old X    -DE/DX   Delta X   Delta X   Delta X     New X
                                 (Linear)    (Quad)   (Total)
    X1       37.43925   0.00056   0.00000   0.00019   0.00024  37.43950
    Y1       22.31389   0.00019   0.00000   0.00046   0.00060  22.31448
    Z1       29.47595  -0.00023   0.00000  -0.00022  -0.00028  29.47567
    X2       37.79263   0.00292   0.00000   0.00826   0.00832  37.80095
    Y2       23.22851   0.00736   0.00000   0.01925   0.01938  23.24790
    Z2       31.24473   0.01450   0.00000   0.03922   0.03915  31.28388
    X3       35.61756  -0.01517   0.00000  -0.04021  -0.04015  35.57740
    Y3       21.43894  -0.00736   0.00000  -0.01992  -0.01979  21.41916
    Z3       29.52130   0.00039   0.00000   0.00099   0.00092  29.52222
    X4       38.85655   0.01129   0.00000   0.03029   0.03034  38.88689
    Y4       20.90793  -0.01126   0.00000  -0.03026  -0.03012  20.87781
    Z4       29.14714  -0.00255   0.00000  -0.00653  -0.00659  29.14055
    X5       37.49217   0.00041   0.00000   0.00119   0.00125  37.49342
    Y5       23.68394   0.01106   0.00000   0.02979   0.02993  23.71387
    Z5       27.98873  -0.01210   0.00000  -0.03314  -0.03320  27.95553
         Item               Value     Threshold  Converged?
 Maximum Force            0.015172     0.000450     NO 
 RMS     Force            0.008513     0.000300     NO 
 Maximum Displacement     0.040153     0.001800     NO 
 RMS     Displacement     0.022882     0.001200     NO 
 Predicted change in Energy=-1.460704D-03
 GradGradGradGradGradGradGradGradGradGradGradGradGradGradGradGradGradGrad

 1\1\GINC-H08R06\Force\RB3LYP\3-21G*\C1H4\ACKGYDJ0BD\09-Jul-2026\0\\#fo
 rce b3lyp/3-21G* Geom=PrintInputOrient\\Generated by MDDatasetMaker (A
 uthor: Jinzhe Zeng)\\0,1\C,19.812,11.808,15.598\H,19.999,12.292,16.534
 \H,18.848,11.345,15.622\H,20.562,11.064,15.424\H,19.84,12.533,14.811\\
 Version=EM64L-G16RevB.01\State=1-A\HF=-40.3001905\RMSD=5.585e-09\RMSF=
 8.513e-03\Dipole=-0.0001616,0.0003604,-0.0000806\Quadrupole=0.0009848,
 0.0003173,-0.0013021,-0.000223,-0.0006692,0.0011128\PG=C01 [X(C1H4)]\\
 @


 IF YOU'RE NOT PART OF THE SOLUTION,
 THEN YOU'RE PART OF THE PRECIPITATE.
 Job cpu time:       0 days  0 hours  2 minutes 34.5 seconds.
 Elapsed time:       0 days  0 hours  0 minutes  3.2 seconds.
 File lengths (MBytes):  RWF=      6 Int=      0 D2E=      0 Chk=      1 Scr=      1
 Normal termination of Gaussian 16 at Thu Jul  9 10:27:15 2026.
