 Entering Gaussian System, Link 0=g16
 Input=loop1_O1_02.gjf
 Output=loop1_O1_02.log
 Initial command:
 /work/home/ackgydj0bd/apprepo/gaussian/16b.01-none_v1.3/app/g16/l1.exe "/work/home/ackgydj0bd/apprepo/gaussian/16b.01-none_v1.3/app/g16/scratch/Gau-26186.inp" -scrdir="/work/home/ackgydj0bd/apprepo/gaussian/16b.01-none_v1.3/app/g16/scratch/"
 Entering Link 1 = /work/home/ackgydj0bd/apprepo/gaussian/16b.01-none_v1.3/app/g16/l1.exe PID=     26188.
  
 Copyright (c) 1988-2017, Gaussian, Inc.  All Rights Reserved.
  
 This is part of the Gaussian(R) 16 program.  It is based on
 the Gaussian(R) 09 system (copyright 2009, Gaussian, Inc.),
 the Gaussian(R) 03 system (copyright 2003, Gaussian, Inc.),
 the Gaussian(R) 98 system (copyright 1998, Gaussian, Inc.),
 the Gaussian(R) 94 system (copyright 1995, Gaussian, Inc.),
 the Gaussian 92(TM) system (copyright 1992, Gaussian, Inc.),
 the Gaussian 90(TM) system (copyright 1990, Gaussian, Inc.),
 the Gaussian 88(TM) system (copyright 1988, Gaussian, Inc.),
 the Gaussian 86(TM) system (copyright 1986, Carnegie Mellon
 University), and the Gaussian 82(TM) system (copyright 1983,
 Carnegie Mellon University). Gaussian is a federally registered
 trademark of Gaussian, Inc.
  
 This software contains proprietary and confidential information,
 including trade secrets, belonging to Gaussian, Inc.
  
 This software is provided under written license and may be
 used, copied, transmitted, or stored only in accord with that
 written license.
  
 The following legend is applicable only to US Government
 contracts under FAR:
  
                    RESTRICTED RIGHTS LEGEND
  
 Use, reproduction and disclosure by the US Government is
 subject to restrictions as set forth in subparagraphs (a)
 and (c) of the Commercial Computer Software - Restricted
 Rights clause in FAR 52.227-19.
  
 Gaussian, Inc.
 340 Quinnipiac St., Bldg. 40, Wallingford CT 06492
  
  
 ---------------------------------------------------------------
 Warning -- This program may not be used in any manner that
 competes with the business of Gaussian, Inc. or will provide
 assistance to any competitor of Gaussian, Inc.  The licensee
 of this program is prohibited from giving any competitor of
 Gaussian, Inc. access to this program.  By using this program,
 the user acknowledges that Gaussian, Inc. is engaged in the
 business of creating and licensing software in the field of
 computational chemistry and represents and warrants to the
 licensee that it is not a competitor of Gaussian, Inc. and that
 it will not use this program in any manner prohibited above.
 ---------------------------------------------------------------
  

 Cite this work as:
 Gaussian 16, Revision B.01,
 M. J. Frisch, G. W. Trucks, H. B. Schlegel, G. E. Scuseria, 
 M. A. Robb, J. R. Cheeseman, G. Scalmani, V. Barone, 
 G. A. Petersson, H. Nakatsuji, X. Li, M. Caricato, A. V. Marenich, 
 J. Bloino, B. G. Janesko, R. Gomperts, B. Mennucci, H. P. Hratchian, 
 J. V. Ortiz, A. F. Izmaylov, J. L. Sonnenberg, D. Williams-Young, 
 F. Ding, F. Lipparini, F. Egidi, J. Goings, B. Peng, A. Petrone, 
 T. Henderson, D. Ranasinghe, V. G. Zakrzewski, J. Gao, N. Rega, 
 G. Zheng, W. Liang, M. Hada, M. Ehara, K. Toyota, R. Fukuda, 
 J. Hasegawa, M. Ishida, T. Nakajima, Y. Honda, O. Kitao, H. Nakai, 
 T. Vreven, K. Throssell, J. A. Montgomery, Jr., J. E. Peralta, 
 F. Ogliaro, M. J. Bearpark, J. J. Heyd, E. N. Brothers, K. N. Kudin, 
 V. N. Staroverov, T. A. Keith, R. Kobayashi, J. Normand, 
 K. Raghavachari, A. P. Rendell, J. C. Burant, S. S. Iyengar, 
 J. Tomasi, M. Cossi, J. M. Millam, M. Klene, C. Adamo, R. Cammi, 
 J. W. Ochterski, R. L. Martin, K. Morokuma, O. Farkas, 
 J. B. Foresman, and D. J. Fox, Gaussian, Inc., Wallingford CT, 2016.
 
 ******************************************
 Gaussian 16:  EM64L-G16RevB.01 20-Dec-2017
                 9-Jul-2026 
 ******************************************
 %nproc=64
 Will use up to   64 processors via shared memory.
 -----------------------------------------
 #force b3lyp/3-21G* Geom=PrintInputOrient
 -----------------------------------------
 1/10=7,30=1,38=1/1,3;
 2/9=2000,12=2,17=6,18=5,40=1/2;
 3/5=5,7=1,11=2,25=1,30=1,71=1,74=-5/1,2,3;
 4//1;
 5/5=2,38=5/2;
 6/7=2,8=2,9=2,10=2,28=1/1;
 7/29=1/1,2,3,16;
 1/10=7,30=1/3;
 99//99;
 -------------------------------------------------
 Generated by MDDatasetMaker (Author: Jinzhe Zeng)
 -------------------------------------------------
 Symbolic Z-matrix:
 Charge =  0 Multiplicity = 3
 O                     7.28165   28.5239   17.1295 
 O                     9.2028    28.2786   17.126 
 O                     8.87929   29.8753   16.4737 
 

 GradGradGradGradGradGradGradGradGradGradGradGradGradGradGradGradGradGrad
 Berny optimization.
 Initialization pass.
 Trust Radius=3.00D-01 FncErr=1.00D-07 GrdErr=1.00D-07 EigMax=2.50D+02 EigMin=1.00D-04
 Number of steps in this run=      2 maximum allowed number of steps=      2.
 GradGradGradGradGradGradGradGradGradGradGradGradGradGradGradGradGradGrad

                          Input orientation:                          
 ---------------------------------------------------------------------
 Center     Atomic      Atomic             Coordinates (Angstroms)
 Number     Number       Type             X           Y           Z
 ---------------------------------------------------------------------
      1          8           0        7.281650   28.523900   17.129500
      2          8           0        9.202800   28.278600   17.126000
      3          8           0        8.879290   29.875300   16.473700
 ---------------------------------------------------------------------
                    Distance matrix (angstroms):
                    1          2          3
     1  O    0.000000
     2  O    1.936750   0.000000
     3  O    2.192900   1.754880   0.000000
 Stoichiometry    O3(3)
 Framework group  CS[SG(O3)]
 Deg. of freedom     3
 Full point group                 CS      NOp   2
 Largest Abelian subgroup         CS      NOp   2
 Largest concise Abelian subgroup C1      NOp   1
                         Standard orientation:                         
 ---------------------------------------------------------------------
 Center     Atomic      Atomic             Coordinates (Angstroms)
 Number     Number       Type             X           Y           Z
 ---------------------------------------------------------------------
      1          8           0        1.090629   -0.608712    0.000000
      2          8           0        0.000000    0.991766    0.000000
      3          8           0       -1.090629   -0.383055    0.000000
 ---------------------------------------------------------------------
 Rotational constants (GHZ):          21.9939543          12.9322182           8.1437671
 Standard basis: 3-21G* (6D, 7F)
 There are    21 symmetry adapted cartesian basis functions of A'  symmetry.
 There are     6 symmetry adapted cartesian basis functions of A"  symmetry.
 There are    21 symmetry adapted basis functions of A'  symmetry.
 There are     6 symmetry adapted basis functions of A"  symmetry.
    27 basis functions,    45 primitive gaussians,    27 cartesian basis functions
    13 alpha electrons       11 beta electrons
       nuclear repulsion energy        52.2297217504 Hartrees.
 NAtoms=    3 NActive=    3 NUniq=    3 SFac= 1.00D+00 NAtFMM=   60 NAOKFM=F Big=F
 Integral buffers will be    131072 words long.
 Raffenetti 2 integral format.
 Two-electron integral symmetry is turned on.
 One-electron integrals computed using PRISM.
 PrsmSu:  requested number of processors reduced to:  31 ShMem   1 Linda.
 NBasis=    27 RedAO= T EigKep=  1.50D-01  NBF=    21     6
 NBsUse=    27 1.00D-06 EigRej= -1.00D+00 NBFU=    21     6
 ExpMin= 3.74D-01 ExpMax= 3.22D+02 ExpMxC= 3.22D+02 IAcc=3 IRadAn=         5 AccDes= 0.00D+00
 Harris functional with IExCor=  402 and IRadAn=       5 diagonalized for initial guess.
 HarFok:  IExCor=  402 AccDes= 0.00D+00 IRadAn=         5 IDoV= 1 UseB2=F ITyADJ=14
 ICtDFT=  3500011 ScaDFX=  1.000000  1.000000  1.000000  1.000000
 FoFCou: FMM=F IPFlag=           0 FMFlag=      100000 FMFlg1=           0
         NFxFlg=           0 DoJE=T BraDBF=F KetDBF=T FulRan=T
         wScrn=  0.000000 ICntrl=       500 IOpCl=  0 I1Cent=   200000004 NGrid=           0
         NMat0=    1 NMatS0=      1 NMatT0=    0 NMatD0=    1 NMtDS0=    0 NMtDT0=    0
 Petite list used in FoFCou.
 Initial guess orbital symmetries:
 Alpha Orbitals:
       Occupied  (A') (A') (A') (A') (A') (A') (A') (A') (A") (A')
                 (A") (A") (A')
       Virtual   (A') (A') (A") (A') (A') (A") (A') (A") (A') (A')
                 (A') (A') (A') (A')
 Beta  Orbitals:
       Occupied  (A') (A') (A') (A') (A') (A') (A') (A') (A") (A')
                 (A")
       Virtual   (A") (A') (A') (A') (A") (A') (A') (A") (A') (A")
                 (A') (A') (A') (A') (A') (A')
 The electronic state of the initial guess is 3-A".
 Initial guess <Sx>= 0.0000 <Sy>= 0.0000 <Sz>= 1.0000 <S**2>= 2.0000 S= 1.0000
 Keep R1 and R2 ints in memory in symmetry-blocked form, NReq=55340429.
 Requested convergence on RMS density matrix=1.00D-08 within 128 cycles.
 Requested convergence on MAX density matrix=1.00D-06.
 Requested convergence on             energy=1.00D-06.
 No special actions if energy rises.
 Integral accuracy reduced to 1.0D-05 until final iterations.
 EnCoef did     2 forward-backward iterations
 EnCoef did   100 forward-backward iterations
 Problem detected with inexpensive integrals.
 Switching to full accuracy and repeating last cycle.
 EnCoef did   100 forward-backward iterations
 EnCoef did   100 forward-backward iterations
 EnCoef did   100 forward-backward iterations
 EnCoef did    13 forward-backward iterations
 EnCoef did     9 forward-backward iterations
 EnCoef did     3 forward-backward iterations
 EnCoef did     2 forward-backward iterations
 Rare condition: small coef for last iteration:  0.000D+00
 EnCoef did   100 forward-backward iterations
 Rare condition: small coef for last iteration:  0.000D+00
 EnCoef did     8 forward-backward iterations
 Rare condition: small coef for last iteration:  0.000D+00
 EnCoef did   100 forward-backward iterations
 EnCoef did     7 forward-backward iterations
 EnCoef did     2 forward-backward iterations
 Rare condition: small coef for last iteration:  0.000D+00
 EnCoef did   100 forward-backward iterations
 Rare condition: small coef for last iteration:  0.000D+00
 EnCoef did     7 forward-backward iterations
 Rare condition: small coef for last iteration: -0.222D-15
 EnCoef did    16 forward-backward iterations
 EnCoef did   100 forward-backward iterations
 Rare condition: small coef for last iteration:  0.000D+00
 EnCoef did   100 forward-backward iterations
 Rare condition: small coef for last iteration:  0.000D+00
 EnCoef did   100 forward-backward iterations
 Rare condition: small coef for last iteration:  0.000D+00
 EnCoef did   100 forward-backward iterations
 EnCoef did     1 forward-backward iterations
 Rare condition: small coef for last iteration:  0.000D+00
 EnCoef did   100 forward-backward iterations
 Rare condition: small coef for last iteration:  0.000D+00
 Rare condition: small coef for last iteration:  0.000D+00
 Rare condition: small coef for last iteration:  0.000D+00
 Rare condition: small coef for last iteration:  0.000D+00
 Rare condition: small coef for last iteration:  0.000D+00
 EnCoef did     6 forward-backward iterations
 EnCoef did     2 forward-backward iterations
 >>>>>>>>>> Convergence criterion not met.
 SCF Done:  E(UB3LYP) =  -224.042604139     A.U. after  129 cycles
            NFock=128  Conv=0.10D-04     -V/T= 2.0109
 <Sx>= 0.0000 <Sy>= 0.0000 <Sz>= 1.0000 <S**2>= 2.2383 S= 1.0774
 <L.S>= 0.000000000000E+00
 Annihilation of the first spin contaminant:
 S**2 before annihilation     2.2383,   after     2.0176

 **********************************************************************

            Population analysis using the SCF Density.

 **********************************************************************

 Orbital symmetries:
 Alpha Orbitals:
       Occupied  (A') (A') (A') (A') (A') (A') (A') (A") (A') (A')
                 (A") (A') (A")
       Virtual   (A') (A') (A") (A') (A') (A') (A") (A") (A') (A')
                 (A') (A') (A') (A')
 Beta  Orbitals:
       Occupied  (A') (A') (A') (A') (A') (A') (A') (A') (A") (A')
                 (A")
       Virtual   (A") (A') (A') (A') (A") (A') (A') (A') (A") (A')
                 (A") (A') (A') (A') (A') (A')
 The electronic state is 3-A".
 Alpha  occ. eigenvalues --  -19.21002 -19.20008 -19.14926  -1.06168  -0.94218
 Alpha  occ. eigenvalues --   -0.90144  -0.46608  -0.45973  -0.44077  -0.39321
 Alpha  occ. eigenvalues --   -0.36072  -0.34542  -0.31540
 Alpha virt. eigenvalues --   -0.17184  -0.15389   1.20061   1.20446   1.30163
 Alpha virt. eigenvalues --    1.38247   1.39212   1.46004   1.46641   1.53687
 Alpha virt. eigenvalues --    1.58194   1.97003   2.46240   2.70570
  Beta  occ. eigenvalues --  -19.19317 -19.17629 -19.13755  -1.00975  -0.88276
  Beta  occ. eigenvalues --   -0.85518  -0.43093  -0.40230  -0.36178  -0.32747
  Beta  occ. eigenvalues --   -0.29941
  Beta virt. eigenvalues --   -0.17955  -0.17352  -0.14481  -0.12818   1.25527
  Beta virt. eigenvalues --    1.26619   1.32353   1.40359   1.44548   1.48162
  Beta virt. eigenvalues --    1.49302   1.56088   1.62474   2.00652   2.50651
  Beta virt. eigenvalues --    2.73438
          Condensed to atoms (all electrons):
               1          2          3
     1  O    7.917969   0.096868   0.009868
     2  O    0.096868   7.783568   0.137626
     3  O    0.009868   0.137626   7.809740
          Atomic-Atomic Spin Densities.
               1          2          3
     1  O    0.482448  -0.009602  -0.032293
     2  O   -0.009602   0.281198  -0.033929
     3  O   -0.032293  -0.033929   1.388004
 Mulliken charges and spin densities:
               1          2
     1  O   -0.024705   0.440552
     2  O   -0.018062   0.237666
     3  O    0.042766   1.321782
 Sum of Mulliken charges =   0.00000   2.00000
 Mulliken charges and spin densities with hydrogens summed into heavy atoms:
               1          2
     1  O   -0.024705   0.440552
     2  O   -0.018062   0.237666
     3  O    0.042766   1.321782
 Electronic spatial extent (au):  <R**2>=            142.8900
 Charge=              0.0000 electrons
 Dipole moment (field-independent basis, Debye):
    X=             -0.3453    Y=             -0.0493    Z=              0.0000  Tot=              0.3488
 Quadrupole moment (field-independent basis, Debye-Ang):
   XX=            -14.0229   YY=            -13.9908   ZZ=            -15.0943
   XY=              0.3219   XZ=              0.0000   YZ=              0.0000
 Traceless Quadrupole moment (field-independent basis, Debye-Ang):
   XX=              0.3464   YY=              0.3785   ZZ=             -0.7249
   XY=              0.3219   XZ=              0.0000   YZ=              0.0000
 Octapole moment (field-independent basis, Debye-Ang**2):
  XXX=              1.1123  YYY=             -0.0884  ZZZ=              0.0000  XYY=              0.2998
  XXY=             -0.7951  XXZ=              0.0000  XZZ=             -1.0149  YZZ=             -0.2497
  YYZ=              0.0000  XYZ=              0.0000
 Hexadecapole moment (field-independent basis, Debye-Ang**3):
 XXXX=            -74.8184 YYYY=            -48.3553 ZZZZ=             -8.8139 XXXY=              3.6470
 XXXZ=              0.0000 YYYX=              3.2771 YYYZ=              0.0000 ZZZX=              0.0000
 ZZZY=              0.0000 XXYY=            -19.3642 XXZZ=            -14.4492 YYZZ=            -10.5511
 XXYZ=              0.0000 YYXZ=              0.0000 ZZXY=              1.7530
 N-N= 5.222972175037D+01 E-N=-6.342076355455D+02  KE= 2.216258362128D+02
 Symmetry A'   KE= 2.089045598618D+02
 Symmetry A"   KE= 1.272127635106D+01
 Symmetry A'   SP= 1.000000000000D+00
 Symmetry A"   SP= 1.000000000000D+00
                          Isotropic Fermi Contact Couplings
        Atom                 a.u.       MegaHertz       Gauss      10(-4) cm-1
     1  O(17)              0.07461     -22.61499      -8.06959      -7.54355
     2  O(17)              0.04572     -13.85839      -4.94502      -4.62266
     3  O(17)              0.09454     -28.65530     -10.22493      -9.55838
 --------------------------------------------------------
       Center         ----  Spin Dipole Couplings  ----
                      3XX-RR        3YY-RR        3ZZ-RR
 --------------------------------------------------------
     1   Atom        3.186960     -2.319517     -0.867443
     2   Atom        0.002950     -0.219997      0.217046
     3   Atom       -0.947615     -1.429667      2.377282
 --------------------------------------------------------
                        XY            XZ            YZ
 --------------------------------------------------------
     1   Atom        2.048046      0.000000      0.000000
     2   Atom       -1.687338      0.000000      0.000000
     3   Atom        0.098230      0.000000      0.000000
 --------------------------------------------------------


 ---------------------------------------------------------------------------------
              Anisotropic Spin Dipole Couplings in Principal Axis System
 ---------------------------------------------------------------------------------

       Atom             a.u.   MegaHertz   Gauss  10(-4) cm-1        Axes

              Baa    -2.9977   216.913    77.400    72.354 -0.3144  0.9493  0.0000
     1 O(17)  Bbb    -0.8674    62.768    22.397    20.937  0.0000  0.0000  1.0000
              Bcc     3.8652  -279.681   -99.797   -93.291  0.9493  0.3144  0.0000
 
              Baa    -1.7995   130.213    46.463    43.435  0.6834  0.7300  0.0000
     2 O(17)  Bbb     0.2170   -15.705    -5.604    -5.239  0.0000  0.0000  1.0000
              Bcc     1.5825  -114.508   -40.859   -38.196  0.7300 -0.6834  0.0000
 
              Baa    -1.4489   104.842    37.410    34.972 -0.1923  0.9813  0.0000
     3 O(17)  Bbb    -0.9284    67.176    23.970    22.407  0.9813  0.1923  0.0000
              Bcc     2.3773  -172.018   -61.380   -57.379  0.0000  0.0000  1.0000
 

 ---------------------------------------------------------------------------------

 SCFChk:  SCF convergence  1.02D-05 required  1.00D-08


 SCF Error SCF Error SCF Error SCF Error SCF Error SCF Error SCF Error SCF Error

                                    ERROR!!!!

    SCF has not converged.  Gradients and post-SCF results would be GARBAGE!!

 SCF Error SCF Error SCF Error SCF Error SCF Error SCF Error SCF Error SCF Error


 Error termination via Lnk1e in /work/home/ackgydj0bd/apprepo/gaussian/16b.01-none_v1.3/app/g16/l701.exe at Thu Jul  9 10:29:31 2026.
 Job cpu time:       0 days  0 hours  3 minutes 30.6 seconds.
 Elapsed time:       0 days  0 hours  0 minutes  3.9 seconds.
 File lengths (MBytes):  RWF=      6 Int=      0 D2E=      0 Chk=      1 Scr=      1
