 Entering Gaussian System, Link 0=g16
 Input=loop1_H1_01.gjf
 Output=loop1_H1_01.log
 Initial command:
 /work/home/ackgydj0bd/apprepo/gaussian/16b.01-none_v1.3/app/g16/l1.exe "/work/home/ackgydj0bd/apprepo/gaussian/16b.01-none_v1.3/app/g16/scratch/Gau-7160.inp" -scrdir="/work/home/ackgydj0bd/apprepo/gaussian/16b.01-none_v1.3/app/g16/scratch/"
 Entering Link 1 = /work/home/ackgydj0bd/apprepo/gaussian/16b.01-none_v1.3/app/g16/l1.exe PID=      7161.
  
 Copyright (c) 1988-2017, Gaussian, Inc.  All Rights Reserved.
  
 This is part of the Gaussian(R) 16 program.  It is based on
 the Gaussian(R) 09 system (copyright 2009, Gaussian, Inc.),
 the Gaussian(R) 03 system (copyright 2003, Gaussian, Inc.),
 the Gaussian(R) 98 system (copyright 1998, Gaussian, Inc.),
 the Gaussian(R) 94 system (copyright 1995, Gaussian, Inc.),
 the Gaussian 92(TM) system (copyright 1992, Gaussian, Inc.),
 the Gaussian 90(TM) system (copyright 1990, Gaussian, Inc.),
 the Gaussian 88(TM) system (copyright 1988, Gaussian, Inc.),
 the Gaussian 86(TM) system (copyright 1986, Carnegie Mellon
 University), and the Gaussian 82(TM) system (copyright 1983,
 Carnegie Mellon University). Gaussian is a federally registered
 trademark of Gaussian, Inc.
  
 This software contains proprietary and confidential information,
 including trade secrets, belonging to Gaussian, Inc.
  
 This software is provided under written license and may be
 used, copied, transmitted, or stored only in accord with that
 written license.
  
 The following legend is applicable only to US Government
 contracts under FAR:
  
                    RESTRICTED RIGHTS LEGEND
  
 Use, reproduction and disclosure by the US Government is
 subject to restrictions as set forth in subparagraphs (a)
 and (c) of the Commercial Computer Software - Restricted
 Rights clause in FAR 52.227-19.
  
 Gaussian, Inc.
 340 Quinnipiac St., Bldg. 40, Wallingford CT 06492
  
  
 ---------------------------------------------------------------
 Warning -- This program may not be used in any manner that
 competes with the business of Gaussian, Inc. or will provide
 assistance to any competitor of Gaussian, Inc.  The licensee
 of this program is prohibited from giving any competitor of
 Gaussian, Inc. access to this program.  By using this program,
 the user acknowledges that Gaussian, Inc. is engaged in the
 business of creating and licensing software in the field of
 computational chemistry and represents and warrants to the
 licensee that it is not a competitor of Gaussian, Inc. and that
 it will not use this program in any manner prohibited above.
 ---------------------------------------------------------------
  

 Cite this work as:
 Gaussian 16, Revision B.01,
 M. J. Frisch, G. W. Trucks, H. B. Schlegel, G. E. Scuseria, 
 M. A. Robb, J. R. Cheeseman, G. Scalmani, V. Barone, 
 G. A. Petersson, H. Nakatsuji, X. Li, M. Caricato, A. V. Marenich, 
 J. Bloino, B. G. Janesko, R. Gomperts, B. Mennucci, H. P. Hratchian, 
 J. V. Ortiz, A. F. Izmaylov, J. L. Sonnenberg, D. Williams-Young, 
 F. Ding, F. Lipparini, F. Egidi, J. Goings, B. Peng, A. Petrone, 
 T. Henderson, D. Ranasinghe, V. G. Zakrzewski, J. Gao, N. Rega, 
 G. Zheng, W. Liang, M. Hada, M. Ehara, K. Toyota, R. Fukuda, 
 J. Hasegawa, M. Ishida, T. Nakajima, Y. Honda, O. Kitao, H. Nakai, 
 T. Vreven, K. Throssell, J. A. Montgomery, Jr., J. E. Peralta, 
 F. Ogliaro, M. J. Bearpark, J. J. Heyd, E. N. Brothers, K. N. Kudin, 
 V. N. Staroverov, T. A. Keith, R. Kobayashi, J. Normand, 
 K. Raghavachari, A. P. Rendell, J. C. Burant, S. S. Iyengar, 
 J. Tomasi, M. Cossi, J. M. Millam, M. Klene, C. Adamo, R. Cammi, 
 J. W. Ochterski, R. L. Martin, K. Morokuma, O. Farkas, 
 J. B. Foresman, and D. J. Fox, Gaussian, Inc., Wallingford CT, 2016.
 
 ******************************************
 Gaussian 16:  EM64L-G16RevB.01 20-Dec-2017
                 9-Jul-2026 
 ******************************************
 %nproc=64
 Will use up to   64 processors via shared memory.
 -----------------------------------------
 #force b3lyp/3-21G* Geom=PrintInputOrient
 -----------------------------------------
 1/10=7,30=1,38=1/1,3;
 2/9=2000,12=2,17=6,18=5,40=1/2;
 3/5=5,7=1,11=2,25=1,30=1,71=1,74=-5/1,2,3;
 4//1;
 5/5=2,38=5/2;
 6/7=2,8=2,9=2,10=2,28=1/1;
 7/29=1/1,2,3,16;
 1/10=7,30=1/3;
 99//99;
 -------------------------------------------------
 Generated by MDDatasetMaker (Author: Jinzhe Zeng)
 -------------------------------------------------
 Symbolic Z-matrix:
 Charge =  0 Multiplicity = 2
 C                     5.0561    23.7682   4.89686 
 O                     3.85551   24.8283   4.31188 
 H                     3.34444   24.8732   5.11897 
 O                     1.74939   25.7182   5.80756 
 

 GradGradGradGradGradGradGradGradGradGradGradGradGradGradGradGradGradGrad
 Berny optimization.
 Initialization pass.
 Trust Radius=3.00D-01 FncErr=1.00D-07 GrdErr=1.00D-07 EigMax=2.50D+02 EigMin=1.00D-04
 Number of steps in this run=      2 maximum allowed number of steps=      2.
 GradGradGradGradGradGradGradGradGradGradGradGradGradGradGradGradGradGrad

                          Input orientation:                          
 ---------------------------------------------------------------------
 Center     Atomic      Atomic             Coordinates (Angstroms)
 Number     Number       Type             X           Y           Z
 ---------------------------------------------------------------------
      1          6           0        5.056100   23.768200    4.896860
      2          8           0        3.855510   24.828300    4.311880
      3          1           0        3.344440   24.873200    5.118970
      4          8           0        1.749390   25.718200    5.807560
 ---------------------------------------------------------------------
                    Distance matrix (angstroms):
                    1          2          3          4
     1  C    0.000000
     2  O    1.705119   0.000000
     3  H    2.049424   0.956349   0.000000
     4  O    3.945403   2.732164   1.931933   0.000000
 Stoichiometry    CHO2(2)
 Framework group  C1[X(CHO2)]
 Deg. of freedom     6
 Full point group                 C1      NOp   1
 Largest Abelian subgroup         C1      NOp   1
 Largest concise Abelian subgroup C1      NOp   1
                         Standard orientation:                         
 ---------------------------------------------------------------------
 Center     Atomic      Atomic             Coordinates (Angstroms)
 Number     Number       Type             X           Y           Z
 ---------------------------------------------------------------------
      1          6           0       -1.910762   -0.509852   -0.000010
      2          8           0       -0.600061    0.580786   -0.000006
      3          1           0        0.092747   -0.078472    0.000186
      4          8           0        2.021539   -0.188588   -0.000010
 ---------------------------------------------------------------------
 Rotational constants (GHZ):          55.5996112           4.3966996           4.0744970
 Standard basis: 3-21G* (6D, 7F)
 There are    29 symmetry adapted cartesian basis functions of A   symmetry.
 There are    29 symmetry adapted basis functions of A   symmetry.
    29 basis functions,    48 primitive gaussians,    29 cartesian basis functions
    12 alpha electrons       11 beta electrons
       nuclear repulsion energy        41.8975916109 Hartrees.
 NAtoms=    4 NActive=    4 NUniq=    4 SFac= 1.00D+00 NAtFMM=   60 NAOKFM=F Big=F
 Integral buffers will be    131072 words long.
 Raffenetti 2 integral format.
 Two-electron integral symmetry is turned on.
 One-electron integrals computed using PRISM.
 PrsmSu:  requested number of processors reduced to:  31 ShMem   1 Linda.
 NBasis=    29 RedAO= T EigKep=  9.92D-02  NBF=    29
 NBsUse=    29 1.00D-06 EigRej= -1.00D+00 NBFU=    29
 ExpMin= 1.83D-01 ExpMax= 3.22D+02 ExpMxC= 3.22D+02 IAcc=3 IRadAn=         5 AccDes= 0.00D+00
 Harris functional with IExCor=  402 and IRadAn=       5 diagonalized for initial guess.
 HarFok:  IExCor=  402 AccDes= 0.00D+00 IRadAn=         5 IDoV= 1 UseB2=F ITyADJ=14
 ICtDFT=  3500011 ScaDFX=  1.000000  1.000000  1.000000  1.000000
 FoFCou: FMM=F IPFlag=           0 FMFlag=      100000 FMFlg1=           0
         NFxFlg=           0 DoJE=T BraDBF=F KetDBF=T FulRan=T
         wScrn=  0.000000 ICntrl=       500 IOpCl=  0 I1Cent=   200000004 NGrid=           0
         NMat0=    1 NMatS0=      1 NMatT0=    0 NMatD0=    1 NMtDS0=    0 NMtDT0=    0
 Petite list used in FoFCou.
 Initial guess <Sx>= 0.0000 <Sy>= 0.0000 <Sz>= 0.5000 <S**2>= 0.7500 S= 0.5000
 Keep R1 and R2 ints in memory in canonical form, NReq=55458556.
 Requested convergence on RMS density matrix=1.00D-08 within 128 cycles.
 Requested convergence on MAX density matrix=1.00D-06.
 Requested convergence on             energy=1.00D-06.
 No special actions if energy rises.
 Integral accuracy reduced to 1.0D-05 until final iterations.
 EnCoef did     2 forward-backward iterations
 EnCoef did   100 forward-backward iterations
 Problem detected with inexpensive integrals.
 Switching to full accuracy and repeating last cycle.
 EnCoef did   100 forward-backward iterations
 EnCoef did   100 forward-backward iterations
 EnCoef did     4 forward-backward iterations
 EnCoef did   100 forward-backward iterations
 SCF Done:  E(UB3LYP) =  -187.751058303     A.U. after   33 cycles
            NFock= 33  Conv=0.59D-08     -V/T= 2.0093
 <Sx>= 0.0000 <Sy>= 0.0000 <Sz>= 0.5000 <S**2>= 1.7298 S= 0.9071
 <L.S>= 0.000000000000E+00
 Annihilation of the first spin contaminant:
 S**2 before annihilation     1.7298,   after     0.7851

 **********************************************************************

            Population analysis using the SCF Density.

 **********************************************************************

 Orbital symmetries:
 Alpha Orbitals:
       Occupied  (A) (A) (A) (A) (A) (A) (A) (A) (A) (A) (A) (A)
       Virtual   (A) (A) (A) (A) (A) (A) (A) (A) (A) (A) (A) (A)
                 (A) (A) (A) (A) (A)
 Beta  Orbitals:
       Occupied  (A) (A) (A) (A) (A) (A) (A) (A) (A) (A) (A)
       Virtual   (A) (A) (A) (A) (A) (A) (A) (A) (A) (A) (A) (A)
                 (A) (A) (A) (A) (A) (A)
 The electronic state is 2-A.
 Alpha  occ. eigenvalues --  -19.15990 -19.09598 -10.25915  -1.02433  -0.99343
 Alpha  occ. eigenvalues --   -0.56215  -0.46413  -0.43554  -0.41862  -0.35909
 Alpha  occ. eigenvalues --   -0.33841  -0.33288
 Alpha virt. eigenvalues --   -0.10493  -0.07276   0.03672   0.16483   0.70925
 Alpha virt. eigenvalues --    0.73443   0.75026   0.96769   1.16729   1.28772
 Alpha virt. eigenvalues --    1.34753   1.40134   1.41720   1.52297   1.63214
 Alpha virt. eigenvalues --    2.20695   2.74010
  Beta  occ. eigenvalues --  -19.11450 -19.09330 -10.27390  -1.01679  -0.84573
  Beta  occ. eigenvalues --   -0.59942  -0.45845  -0.34635  -0.33116  -0.30458
  Beta  occ. eigenvalues --   -0.25015
  Beta virt. eigenvalues --   -0.17027  -0.15060  -0.12799   0.02094   0.18060
  Beta virt. eigenvalues --    0.66889   0.69254   0.72621   0.96063   1.14521
  Beta virt. eigenvalues --    1.38295   1.42120   1.42782   1.49576   1.54450
  Beta virt. eigenvalues --    1.64274   2.29896   2.74998
          Condensed to atoms (all electrons):
               1          2          3          4
     1  C    5.740131   0.193029  -0.029250  -0.000359
     2  O    0.193029   8.057242   0.201266  -0.002250
     3  H   -0.029250   0.201266   0.437689   0.029380
     4  O   -0.000359  -0.002250   0.029380   7.981306
          Atomic-Atomic Spin Densities.
               1          2          3          4
     1  C   -1.079139   0.011484   0.015513   0.000250
     2  O    0.011484   0.122819  -0.003594  -0.003943
     3  H    0.015513  -0.003594  -0.032068   0.006911
     4  O    0.000250  -0.003943   0.006911   1.935149
 Mulliken charges and spin densities:
               1          2
     1  C    0.096449  -1.051893
     2  O   -0.449287   0.126765
     3  H    0.360915  -0.013239
     4  O   -0.008078   1.938367
 Sum of Mulliken charges =   0.00000   1.00000
 Mulliken charges and spin densities with hydrogens summed into heavy atoms:
               1          2
     1  C    0.096449  -1.051893
     2  O   -0.088372   0.113526
     4  O   -0.008078   1.938367
 Electronic spatial extent (au):  <R**2>=            259.9032
 Charge=              0.0000 electrons
 Dipole moment (field-independent basis, Debye):
    X=              1.0628    Y=             -1.1292    Z=              0.0003  Tot=              1.5507
 Quadrupole moment (field-independent basis, Debye-Ang):
   XX=            -17.5435   YY=            -17.6615   ZZ=            -16.3967
   XY=              0.0914   XZ=             -0.0002   YZ=             -0.0003
 Traceless Quadrupole moment (field-independent basis, Debye-Ang):
   XX=             -0.3429   YY=             -0.4609   ZZ=              0.8039
   XY=              0.0914   XZ=             -0.0002   YZ=             -0.0003
 Octapole moment (field-independent basis, Debye-Ang**2):
  XXX=             21.6240  YYY=              3.0936  ZZZ=              0.0001  XYY=              7.4779
  XXY=              2.2352  XXZ=              0.0000  XZZ=              2.3442  YZZ=              0.6554
  YYZ=              0.0000  XYZ=             -0.0012
 Hexadecapole moment (field-independent basis, Debye-Ang**3):
 XXXX=           -276.6259 YYYY=            -35.0040 ZZZZ=            -11.7224 XXXY=            -10.4413
 XXXZ=             -0.0033 YYYX=             -8.5880 YYYZ=             -0.0001 ZZZX=             -0.0002
 ZZZY=             -0.0001 XXYY=            -51.5807 XXZZ=            -47.0630 YYZZ=             -7.4877
 XXYZ=             -0.0017 YYXZ=              0.0007 ZZXY=             -1.2936
 N-N= 4.189759161094D+01 E-N=-5.261312927883D+02  KE= 1.860201470551D+02
                          Isotropic Fermi Contact Couplings
        Atom                 a.u.       MegaHertz       Gauss      10(-4) cm-1
     1  C(13)             -0.05664     -63.67711     -22.72157     -21.24040
     2  O(17)             -0.02432      14.74316       5.26073       4.91779
     3  H(1)              -0.01107     -49.49245     -17.66014     -16.50890
     4  O(17)              0.13643     -82.70241     -29.51028     -27.58655
 --------------------------------------------------------
       Center         ----  Spin Dipole Couplings  ----
                      3XX-RR        3YY-RR        3ZZ-RR
 --------------------------------------------------------
     1   Atom       -0.077826     -0.459067      0.536893
     2   Atom        0.049945     -0.206832      0.156886
     3   Atom        0.063633     -0.021475     -0.042158
     4   Atom        1.517488      1.811174     -3.328661
 --------------------------------------------------------
                        XY            XZ            YZ
 --------------------------------------------------------
     1   Atom        0.847960     -0.000195      0.000247
     2   Atom       -0.017101     -0.000045      0.000077
     3   Atom       -0.043949     -0.000009     -0.000009
     4   Atom       -0.004589     -0.000533     -0.002556
 --------------------------------------------------------


 ---------------------------------------------------------------------------------
              Anisotropic Spin Dipole Couplings in Principal Axis System
 ---------------------------------------------------------------------------------

       Atom             a.u.   MegaHertz   Gauss  10(-4) cm-1        Axes

              Baa    -1.1376  -152.651   -54.470   -50.919 -0.6248  0.7808 -0.0002
     1 C(13)  Bbb     0.5369    72.046    25.708    24.032 -0.0001  0.0001  1.0000
              Bcc     0.6007    80.605    28.762    26.887  0.7808  0.6248  0.0000
 
              Baa    -0.2080    15.048     5.370     5.020  0.0662  0.9978 -0.0002
     2 O(17)  Bbb     0.0511    -3.696    -1.319    -1.233  0.9978 -0.0662  0.0005
              Bcc     0.1569   -11.352    -4.051    -3.787 -0.0005  0.0002  1.0000
 
              Baa    -0.0422   -22.494    -8.026    -7.503  0.0023  0.0052  1.0000
     3 H(1)   Bbb    -0.0401   -21.393    -7.634    -7.136  0.3901  0.9207 -0.0057
              Bcc     0.0823    43.887    15.660    14.639  0.9208 -0.3901  0.0000
 
              Baa    -3.3287   240.860    85.945    80.342  0.0001  0.0005  1.0000
     4 O(17)  Bbb     1.5174  -109.799   -39.179   -36.625  0.9999  0.0156 -0.0001
              Bcc     1.8112  -131.061   -46.766   -43.717 -0.0156  0.9999 -0.0005
 

 ---------------------------------------------------------------------------------

 PrsmSu:  requested number of processors reduced to:  31 ShMem   1 Linda.
 Calling FoFJK, ICntrl=      2127 FMM=F ISym2X=0 I1Cent= 0 IOpClX= 1 NMat=1 NMatS=1 NMatT=0.
 ***** Axes restored to original set *****
 -------------------------------------------------------------------
 Center     Atomic                   Forces (Hartrees/Bohr)
 Number     Number              X              Y              Z
 -------------------------------------------------------------------
      1        6          -0.072828467    0.066351613   -0.040800624
      2        8           0.107540650   -0.075175996    0.000989152
      3        1          -0.034438905    0.008989236    0.038889087
      4        8          -0.000273279   -0.000164853    0.000922386
 -------------------------------------------------------------------
 Cartesian Forces:  Max     0.107540650 RMS     0.051127921

 GradGradGradGradGradGradGradGradGradGradGradGradGradGradGradGradGradGrad
 Berny optimization.
 Search for a local minimum.
 Step number   1 out of a maximum of    2
 All quantities printed in internal units (Hartrees-Bohrs-Radians)
 Second derivative matrix not updated -- first step.
 The second derivative matrix:
                          X1        Y1        Z1        X2        Y2
           X1           0.38781
           Y1           0.34872   0.68150
           Z1           0.20059   0.19743   0.12373
           X2          -0.08317   0.07803  -0.05246   0.55277
           Y2           0.06981  -0.06910   0.05340   0.32227   0.70246
           Z2          -0.03110   0.03854  -0.04396  -0.02886   0.19076
           X3          -0.00810  -0.00045   0.01580  -0.17306   0.03422
           Y3           0.00777   0.00043  -0.01517   0.02600  -0.02053
           Z3          -0.00556  -0.00031   0.01085   0.24526  -0.00849
           X4           0.00000   0.00000   0.00000   0.00000   0.00000
           Y4           0.00000   0.00000   0.00000   0.00000   0.00000
           Z4           0.00000   0.00000   0.00000   0.00000   0.00000
                          Z2        X3        Y3        Z3        X4
           Z2           0.55582
           X3           0.22389   0.47770
           Y3           0.00637   0.39253   0.63293
           Z3          -0.42124  -0.07577   0.24447   0.50101
           X4           0.00000   0.00000   0.00000   0.00000   1.00000
           Y4           0.00000   0.00000   0.00000   0.00000   0.00000
           Z4           0.00000   0.00000   0.00000   0.00000   0.00000
                          Y4        Z4
           Y4           1.00000
           Z4           0.00000   1.00000
 ITU=  0
     Eigenvalues ---    0.06813   0.12333   0.38397   0.61975   1.00000
     Eigenvalues ---    1.10274
 Quadratic step=4.302D-01 exceeds max=3.000D-01 adjusted using Lamda=-1.554D-01.
 Angle between NR and scaled steps=   7.70 degrees.
 Angle between quadratic step and forces=  16.76 degrees.
 Linear search not attempted -- first point.
 B after Tr=    -0.000515   -0.010881    0.029155
         Rot=    1.000000    0.000418    0.000603    0.000232 Ang=   0.09 deg.
 Variable       Old X    -DE/DX   Delta X   Delta X   Delta X     New X
                                 (Linear)    (Quad)   (Total)
    X1        9.55464  -0.07283   0.00000  -0.15829  -0.14896   9.40569
    Y1       44.91539   0.06635   0.00000   0.13812   0.13055  45.04594
    Z1        9.25372  -0.04080   0.00000  -0.07286  -0.07004   9.18369
    X2        7.28586   0.10754   0.00000   0.14880   0.16012   7.44598
    Y2       46.91869  -0.07518   0.00000  -0.12212  -0.12961  46.78907
    Z2        8.14827   0.00099   0.00000   0.04842   0.04742   8.19569
    X3        6.32008  -0.03444   0.00000  -0.02766  -0.01804   6.30203
    Y3       47.00354   0.00899   0.00000   0.00854   0.00283  47.00637
    Z3        9.67345   0.03889   0.00000   0.02782   0.02527   9.69872
    X4        3.30587  -0.00027   0.00000  -0.00194   0.00687   3.31274
    Y4       48.60035  -0.00016   0.00000  -0.00052  -0.00377  48.59659
    Z4       10.97470   0.00092   0.00000   0.00484  -0.00265  10.97205
         Item               Value     Threshold  Converged?
 Maximum Force            0.107541     0.000450     NO 
 RMS     Force            0.051128     0.000300     NO 
 Maximum Displacement     0.160124     0.001800     NO 
 RMS     Displacement     0.086538     0.001200     NO 
 Predicted change in Energy=-3.251355D-02
 GradGradGradGradGradGradGradGradGradGradGradGradGradGradGradGradGradGrad

 1\1\GINC-H08R06\Force\UB3LYP\3-21G*\C1H1O2(2)\ACKGYDJ0BD\09-Jul-2026\0
 \\#force b3lyp/3-21G* Geom=PrintInputOrient\\Generated by MDDatasetMak
 er (Author: Jinzhe Zeng)\\0,2\C,5.0561,23.7682,4.89686\O,3.85551,24.82
 83,4.31188\H,3.34444,24.8732,5.11897\O,1.74939,25.7182,5.80756\\Versio
 n=EM64L-G16RevB.01\State=2-A\HF=-187.7510583\S2=1.729846\S2-1=0.\S2A=0
 .78515\RMSD=5.893e-09\RMSF=5.113e-02\Dipole=-0.3038092,0.0077455,0.528
 9913\Quadrupole=0.0081551,0.2787545,-0.2869096,0.3403729,0.1807508,0.2
 141898\PG=C01 [X(C1H1O2)]\\@


 ABOVE ALL I AM AN OPTIMIST FOR NUMBER THEORY,
 AND I HOLD THE HOPE THAT WE MAY NOT BE FAR FROM
 A TIME WHEN IRREFUTABLE ARITHMETIC WILL CELEBRATE
 ITS TRIUMPHS IN PHYSICS AND CHEMISTRY.
   -- HERMANN MINKOWSKI, 1905
 Job cpu time:       0 days  0 hours  2 minutes 58.8 seconds.
 Elapsed time:       0 days  0 hours  0 minutes  3.6 seconds.
 File lengths (MBytes):  RWF=      6 Int=      0 D2E=      0 Chk=      1 Scr=      1
 Normal termination of Gaussian 16 at Thu Jul  9 10:28:16 2026.
