 Entering Gaussian System, Link 0=g16
 Input=loop1_C11_03.gjf
 Output=loop1_C11_03.log
 Initial command:
 /work/home/ackgydj0bd/apprepo/gaussian/16b.01-none_v1.3/app/g16/l1.exe "/work/home/ackgydj0bd/apprepo/gaussian/16b.01-none_v1.3/app/g16/scratch/Gau-241285.inp" -scrdir="/work/home/ackgydj0bd/apprepo/gaussian/16b.01-none_v1.3/app/g16/scratch/"
 Entering Link 1 = /work/home/ackgydj0bd/apprepo/gaussian/16b.01-none_v1.3/app/g16/l1.exe PID=    241286.
  
 Copyright (c) 1988-2017, Gaussian, Inc.  All Rights Reserved.
  
 This is part of the Gaussian(R) 16 program.  It is based on
 the Gaussian(R) 09 system (copyright 2009, Gaussian, Inc.),
 the Gaussian(R) 03 system (copyright 2003, Gaussian, Inc.),
 the Gaussian(R) 98 system (copyright 1998, Gaussian, Inc.),
 the Gaussian(R) 94 system (copyright 1995, Gaussian, Inc.),
 the Gaussian 92(TM) system (copyright 1992, Gaussian, Inc.),
 the Gaussian 90(TM) system (copyright 1990, Gaussian, Inc.),
 the Gaussian 88(TM) system (copyright 1988, Gaussian, Inc.),
 the Gaussian 86(TM) system (copyright 1986, Carnegie Mellon
 University), and the Gaussian 82(TM) system (copyright 1983,
 Carnegie Mellon University). Gaussian is a federally registered
 trademark of Gaussian, Inc.
  
 This software contains proprietary and confidential information,
 including trade secrets, belonging to Gaussian, Inc.
  
 This software is provided under written license and may be
 used, copied, transmitted, or stored only in accord with that
 written license.
  
 The following legend is applicable only to US Government
 contracts under FAR:
  
                    RESTRICTED RIGHTS LEGEND
  
 Use, reproduction and disclosure by the US Government is
 subject to restrictions as set forth in subparagraphs (a)
 and (c) of the Commercial Computer Software - Restricted
 Rights clause in FAR 52.227-19.
  
 Gaussian, Inc.
 340 Quinnipiac St., Bldg. 40, Wallingford CT 06492
  
  
 ---------------------------------------------------------------
 Warning -- This program may not be used in any manner that
 competes with the business of Gaussian, Inc. or will provide
 assistance to any competitor of Gaussian, Inc.  The licensee
 of this program is prohibited from giving any competitor of
 Gaussian, Inc. access to this program.  By using this program,
 the user acknowledges that Gaussian, Inc. is engaged in the
 business of creating and licensing software in the field of
 computational chemistry and represents and warrants to the
 licensee that it is not a competitor of Gaussian, Inc. and that
 it will not use this program in any manner prohibited above.
 ---------------------------------------------------------------
  

 Cite this work as:
 Gaussian 16, Revision B.01,
 M. J. Frisch, G. W. Trucks, H. B. Schlegel, G. E. Scuseria, 
 M. A. Robb, J. R. Cheeseman, G. Scalmani, V. Barone, 
 G. A. Petersson, H. Nakatsuji, X. Li, M. Caricato, A. V. Marenich, 
 J. Bloino, B. G. Janesko, R. Gomperts, B. Mennucci, H. P. Hratchian, 
 J. V. Ortiz, A. F. Izmaylov, J. L. Sonnenberg, D. Williams-Young, 
 F. Ding, F. Lipparini, F. Egidi, J. Goings, B. Peng, A. Petrone, 
 T. Henderson, D. Ranasinghe, V. G. Zakrzewski, J. Gao, N. Rega, 
 G. Zheng, W. Liang, M. Hada, M. Ehara, K. Toyota, R. Fukuda, 
 J. Hasegawa, M. Ishida, T. Nakajima, Y. Honda, O. Kitao, H. Nakai, 
 T. Vreven, K. Throssell, J. A. Montgomery, Jr., J. E. Peralta, 
 F. Ogliaro, M. J. Bearpark, J. J. Heyd, E. N. Brothers, K. N. Kudin, 
 V. N. Staroverov, T. A. Keith, R. Kobayashi, J. Normand, 
 K. Raghavachari, A. P. Rendell, J. C. Burant, S. S. Iyengar, 
 J. Tomasi, M. Cossi, J. M. Millam, M. Klene, C. Adamo, R. Cammi, 
 J. W. Ochterski, R. L. Martin, K. Morokuma, O. Farkas, 
 J. B. Foresman, and D. J. Fox, Gaussian, Inc., Wallingford CT, 2016.
 
 ******************************************
 Gaussian 16:  EM64L-G16RevB.01 20-Dec-2017
                 9-Jul-2026 
 ******************************************
 %nproc=64
 Will use up to   64 processors via shared memory.
 -----------------------------------------
 #force b3lyp/3-21G* Geom=PrintInputOrient
 -----------------------------------------
 1/10=7,30=1,38=1/1,3;
 2/9=2000,12=2,17=6,18=5,40=1/2;
 3/5=5,7=1,11=2,25=1,30=1,71=1,74=-5/1,2,3;
 4//1;
 5/5=2,38=5/2;
 6/7=2,8=2,9=2,10=2,28=1/1;
 7/29=1/1,2,3,16;
 1/10=7,30=1/3;
 99//99;
 -------------------------------------------------
 Generated by MDDatasetMaker (Author: Jinzhe Zeng)
 -------------------------------------------------
 Symbolic Z-matrix:
 Charge =  0 Multiplicity = 2
 C                     6.69541   17.1504   7.35529 
 H                     7.21244   17.7888   7.8663 
 H                     6.22418   18.0367   7.21658 
 H                     6.52149   15.6382   7.31135 
 

 GradGradGradGradGradGradGradGradGradGradGradGradGradGradGradGradGradGrad
 Berny optimization.
 Initialization pass.
 Trust Radius=3.00D-01 FncErr=1.00D-07 GrdErr=1.00D-07 EigMax=2.50D+02 EigMin=1.00D-04
 Number of steps in this run=      2 maximum allowed number of steps=      2.
 GradGradGradGradGradGradGradGradGradGradGradGradGradGradGradGradGradGrad

                          Input orientation:                          
 ---------------------------------------------------------------------
 Center     Atomic      Atomic             Coordinates (Angstroms)
 Number     Number       Type             X           Y           Z
 ---------------------------------------------------------------------
      1          6           0        6.695410   17.150400    7.355290
      2          1           0        7.212440   17.788800    7.866300
      3          1           0        6.224180   18.036700    7.216580
      4          1           0        6.521490   15.638200    7.311350
 ---------------------------------------------------------------------
                    Distance matrix (angstroms):
                    1          2          3          4
     1  C    0.000000
     2  H    0.967474   0.000000
     3  H    1.013324   1.208407   0.000000
     4  H    1.522803   2.326040   2.418714   0.000000
 Stoichiometry    CH3(2)
 Framework group  C1[X(CH3)]
 Deg. of freedom     6
 Full point group                 C1      NOp   1
 Largest Abelian subgroup         C1      NOp   1
 Largest concise Abelian subgroup C1      NOp   1
                         Standard orientation:                         
 ---------------------------------------------------------------------
 Center     Atomic      Atomic             Coordinates (Angstroms)
 Number     Number       Type             X           Y           Z
 ---------------------------------------------------------------------
      1          6           0        0.003677   -0.008397   -0.038101
      2          1           0       -0.711829    0.633632    0.070791
      3          1           0       -0.832299   -0.568718    0.080265
      4          1           0        1.522069   -0.014534    0.077549
 ---------------------------------------------------------------------
 Rotational constants (GHZ):         662.2754921         141.3506134         118.2102246
 Standard basis: 3-21G* (6D, 7F)
 There are    15 symmetry adapted cartesian basis functions of A   symmetry.
 There are    15 symmetry adapted basis functions of A   symmetry.
    15 basis functions,    24 primitive gaussians,    15 cartesian basis functions
     5 alpha electrons        4 beta electrons
       nuclear repulsion energy         9.3843339055 Hartrees.
 NAtoms=    4 NActive=    4 NUniq=    4 SFac= 1.00D+00 NAtFMM=   60 NAOKFM=F Big=F
 Integral buffers will be    131072 words long.
 Raffenetti 2 integral format.
 Two-electron integral symmetry is turned on.
 One-electron integrals computed using PRISM.
 PrsmSu:  requested number of processors reduced to:  31 ShMem   1 Linda.
 NBasis=    15 RedAO= T EigKep=  3.06D-02  NBF=    15
 NBsUse=    15 1.00D-06 EigRej= -1.00D+00 NBFU=    15
 ExpMin= 1.83D-01 ExpMax= 1.72D+02 ExpMxC= 1.72D+02 IAcc=3 IRadAn=         5 AccDes= 0.00D+00
 Harris functional with IExCor=  402 and IRadAn=       5 diagonalized for initial guess.
 HarFok:  IExCor=  402 AccDes= 0.00D+00 IRadAn=         5 IDoV= 1 UseB2=F ITyADJ=14
 ICtDFT=  3500011 ScaDFX=  1.000000  1.000000  1.000000  1.000000
 FoFCou: FMM=F IPFlag=           0 FMFlag=      100000 FMFlg1=           0
         NFxFlg=           0 DoJE=T BraDBF=F KetDBF=T FulRan=T
         wScrn=  0.000000 ICntrl=       500 IOpCl=  0 I1Cent=   200000004 NGrid=           0
         NMat0=    1 NMatS0=      1 NMatT0=    0 NMatD0=    1 NMtDS0=    0 NMtDT0=    0
 Petite list used in FoFCou.
 Initial guess <Sx>= 0.0000 <Sy>= 0.0000 <Sz>= 0.5000 <S**2>= 0.7500 S= 0.5000
 Keep R1 and R2 ints in memory in canonical form, NReq=55229872.
 Requested convergence on RMS density matrix=1.00D-08 within 128 cycles.
 Requested convergence on MAX density matrix=1.00D-06.
 Requested convergence on             energy=1.00D-06.
 No special actions if energy rises.
 Integral accuracy reduced to 1.0D-05 until final iterations.
 Initial convergence to 1.0D-05 achieved.  Increase integral accuracy.
 SCF Done:  E(UB3LYP) =  -39.4757940262     A.U. after   13 cycles
            NFock= 13  Conv=0.97D-08     -V/T= 2.0079
 <Sx>= 0.0000 <Sy>= 0.0000 <Sz>= 0.5000 <S**2>= 0.7606 S= 0.5053
 <L.S>= 0.000000000000E+00
 Annihilation of the first spin contaminant:
 S**2 before annihilation     0.7606,   after     0.7500

 **********************************************************************

            Population analysis using the SCF Density.

 **********************************************************************

 Orbital symmetries:
 Alpha Orbitals:
       Occupied  (A) (A) (A) (A) (A)
       Virtual   (A) (A) (A) (A) (A) (A) (A) (A) (A) (A)
 Beta  Orbitals:
       Occupied  (A) (A) (A) (A)
       Virtual   (A) (A) (A) (A) (A) (A) (A) (A) (A) (A) (A)
 The electronic state is 2-A.
 Alpha  occ. eigenvalues --  -10.13902  -0.72554  -0.39943  -0.34790  -0.22658
 Alpha virt. eigenvalues --   -0.00672   0.18435   0.21308   0.65589   0.70077
 Alpha virt. eigenvalues --    0.82786   0.98252   1.05928   1.15259   1.43993
  Beta  occ. eigenvalues --  -10.12369  -0.69022  -0.38551  -0.33332
  Beta virt. eigenvalues --   -0.04562   0.00733   0.19290   0.22122   0.66491
  Beta virt. eigenvalues --    0.78545   0.82620   0.99121   1.06510   1.17158
  Beta virt. eigenvalues --    1.47807
          Condensed to atoms (all electrons):
               1          2          3          4
     1  C    5.468318   0.357092   0.366149   0.323559
     2  H    0.357092   0.616296  -0.148581  -0.010250
     3  H    0.366149  -0.148581   0.612422  -0.007219
     4  H    0.323559  -0.010250  -0.007219   0.541465
          Atomic-Atomic Spin Densities.
               1          2          3          4
     1  C    1.267689  -0.020027  -0.017200  -0.011334
     2  H   -0.020027  -0.051351   0.013517   0.000411
     3  H   -0.017200   0.013517  -0.055263   0.000026
     4  H   -0.011334   0.000411   0.000026  -0.091863
 Mulliken charges and spin densities:
               1          2
     1  C   -0.515118   1.219128
     2  H    0.185443  -0.057449
     3  H    0.177230  -0.058919
     4  H    0.152445  -0.102760
 Sum of Mulliken charges =   0.00000   1.00000
 Mulliken charges and spin densities with hydrogens summed into heavy atoms:
               1          2
     1  C    0.000000   1.000000
 Electronic spatial extent (au):  <R**2>=             32.0536
 Charge=              0.0000 electrons
 Dipole moment (field-independent basis, Debye):
    X=             -0.1634    Y=              0.1133    Z=              0.3363  Tot=              0.3907
 Quadrupole moment (field-independent basis, Debye-Ang):
   XX=             -4.8990   YY=             -8.9106   ZZ=             -8.8039
   XY=             -0.0696   XZ=             -0.0065   YZ=              0.0035
 Traceless Quadrupole moment (field-independent basis, Debye-Ang):
   XX=              2.6388   YY=             -1.3727   ZZ=             -1.2660
   XY=             -0.0696   XZ=             -0.0065   YZ=              0.0035
 Octapole moment (field-independent basis, Debye-Ang**2):
  XXX=              1.6754  YYY=              0.2288  ZZZ=              0.3414  XYY=             -0.5942
  XXY=              0.0662  XXZ=              0.4058  XZZ=             -0.6135  YZZ=              0.0821
  YYZ=              0.1039  XYZ=             -0.0020
 Hexadecapole moment (field-independent basis, Debye-Ang**3):
 XXXX=            -14.9111 YYYY=            -12.6452 ZZZZ=             -9.0439 XXXY=             -0.0968
 XXXZ=              0.2038 YYYX=             -0.1147 YYYZ=              0.0124 ZZZX=             -0.1080
 ZZZY=              0.0081 XXYY=             -5.9432 XXZZ=             -5.5521 YYZZ=             -3.6185
 XXYZ=             -0.0053 YYXZ=             -0.0679 ZZXY=             -0.0310
 N-N= 9.384333905537D+00 E-N=-1.097688652035D+02  KE= 3.916507438295D+01
                          Isotropic Fermi Contact Couplings
        Atom                 a.u.       MegaHertz       Gauss      10(-4) cm-1
     1  C(13)              0.21473     241.39808      86.13684      80.52173
     2  H(1)              -0.01259     -56.25949     -20.07478     -18.76614
     3  H(1)              -0.01303     -58.24238     -20.78233     -19.42757
     4  H(1)              -0.02594    -115.94114     -41.37068     -38.67380
 --------------------------------------------------------
       Center         ----  Spin Dipole Couplings  ----
                      3XX-RR        3YY-RR        3ZZ-RR
 --------------------------------------------------------
     1   Atom       -0.482684     -0.501344      0.984028
     2   Atom        0.013257     -0.012810     -0.000447
     3   Atom        0.038999     -0.033956     -0.005043
     4   Atom        0.058537     -0.038220     -0.020316
 --------------------------------------------------------
                        XY            XZ            YZ
 --------------------------------------------------------
     1   Atom       -0.002631     -0.003477      0.006147
     2   Atom       -0.091773     -0.013167      0.011367
     3   Atom        0.079563     -0.014451     -0.008755
     4   Atom       -0.000200      0.006804      0.000036
 --------------------------------------------------------


 ---------------------------------------------------------------------------------
              Anisotropic Spin Dipole Couplings in Principal Axis System
 ---------------------------------------------------------------------------------

       Atom             a.u.   MegaHertz   Gauss  10(-4) cm-1        Axes

              Baa    -0.5017   -67.327   -24.024   -22.458  0.1362  0.9907 -0.0038
     1 C(13)  Bbb    -0.4823   -64.724   -23.095   -21.590  0.9907 -0.1362  0.0029
              Bcc     0.9841   132.052    47.119    44.048 -0.0024  0.0041  1.0000
 
              Baa    -0.0925   -49.338   -17.605   -16.457  0.6555  0.7552  0.0005
     2 H(1)   Bbb    -0.0036    -1.911    -0.682    -0.638  0.1336 -0.1167  0.9841
              Bcc     0.0961    51.249    18.287    17.095  0.7432 -0.6451 -0.1774
 
              Baa    -0.0850   -45.356   -16.184   -15.129 -0.5405  0.8413 -0.0056
     3 H(1)   Bbb    -0.0080    -4.243    -1.514    -1.415  0.1399  0.0964  0.9855
              Bcc     0.0930    49.599    17.698    16.544  0.8296  0.5318 -0.1698
 
              Baa    -0.0382   -20.393    -7.277    -6.802  0.0023  1.0000 -0.0029
     4 H(1)   Bbb    -0.0209   -11.151    -3.979    -3.719 -0.0853  0.0030  0.9963
              Bcc     0.0591    31.544    11.256    10.522  0.9963 -0.0020  0.0853
 

 ---------------------------------------------------------------------------------

 PrsmSu:  requested number of processors reduced to:  31 ShMem   1 Linda.
 Calling FoFJK, ICntrl=      2127 FMM=F ISym2X=0 I1Cent= 0 IOpClX= 1 NMat=1 NMatS=1 NMatT=0.
 ***** Axes restored to original set *****
 -------------------------------------------------------------------
 Center     Atomic                   Forces (Hartrees/Bohr)
 Number     Number              X              Y              Z
 -------------------------------------------------------------------
      1        6          -0.032591199   -0.157874848   -0.044734219
      2        1           0.127833620    0.019960538    0.099884978
      3        1          -0.103407216    0.029337170   -0.060790289
      4        1           0.008164795    0.108577140    0.005639530
 -------------------------------------------------------------------
 Cartesian Forces:  Max     0.157874848 RMS     0.082583955

 GradGradGradGradGradGradGradGradGradGradGradGradGradGradGradGradGradGrad
 Berny optimization.
 Search for a local minimum.
 Step number   1 out of a maximum of    2
 All quantities printed in internal units (Hartrees-Bohrs-Radians)
 Second derivative matrix not updated -- first step.
 The second derivative matrix:
                          X1        Y1        Z1        X2        Y2
           X1           0.25218
           Y1           0.00658   0.64658
           Z1           0.18135   0.14872   0.16249
           X2          -0.15325  -0.15547  -0.14394   0.17249
           Y2          -0.19086  -0.27521  -0.19744   0.16830   0.26018
           Z2          -0.15183  -0.17220  -0.14666   0.16053   0.17801
           X3          -0.09893   0.14889  -0.03740  -0.01925   0.02256
           Y3           0.18427  -0.37137   0.04872  -0.01283   0.01504
           Z3          -0.02952   0.02348  -0.01583  -0.01659   0.01944
           X4           0.00000   0.00000   0.00000   0.00000   0.00000
           Y4           0.00000   0.00000   0.00000   0.00000   0.00000
           Z4           0.00000   0.00000   0.00000   0.00000   0.00000
                          Z2        X3        Y3        Z3        X4
           Z2           0.15416
           X3          -0.00871   0.11818
           Y3          -0.00580  -0.17144   0.35633
           Z3          -0.00750   0.04611  -0.04292   0.02333
           X4           0.00000   0.00000   0.00000   0.00000   1.00000
           Y4           0.00000   0.00000   0.00000   0.00000   0.00000
           Z4           0.00000   0.00000   0.00000   0.00000   0.00000
                          Y4        Z4
           Y4           1.00000
           Z4           0.00000   1.00000
 ITU=  0
     Eigenvalues ---    0.11418   0.23285   0.31487   0.75365   0.83662
     Eigenvalues ---    1.10038
 Quadratic step=1.222D+00 exceeds max=3.000D-01 adjusted using Lamda=-4.221D-01.
 Angle between NR and scaled steps=  21.19 degrees.
 Angle between quadratic step and forces=  32.63 degrees.
 Linear search not attempted -- first point.
 B after Tr=    -0.021396   -0.016712    0.024204
         Rot=    1.000000    0.000269   -0.000391    0.000105 Ang=   0.06 deg.
 Variable       Old X    -DE/DX   Delta X   Delta X   Delta X     New X
                                 (Linear)    (Quad)   (Total)
    X1       12.65249  -0.03259   0.00000  -0.00997  -0.01373  12.63876
    Y1       32.40956  -0.15787   0.00000  -0.03255  -0.04445  32.36511
    Z1       13.89948  -0.04473   0.00000  -0.00857  -0.01168  13.88780
    X2       13.62954   0.12783   0.00000   0.17361   0.17096  13.80050
    Y2       33.61596   0.01996   0.00000  -0.02720  -0.03875  33.57721
    Z2       14.86515   0.09988   0.00000   0.12024   0.11557  14.98072
    X3       11.76200  -0.10341   0.00000  -0.15588  -0.15955  11.60244
    Y3       34.08442   0.02934   0.00000   0.01615   0.00428  34.08870
    Z3       13.63736  -0.06079   0.00000  -0.10297  -0.10620  13.53116
    X4       12.32383   0.00816   0.00000   0.00670   0.00232  12.32615
    Y4       29.55192   0.10858   0.00000   0.09080   0.07893  29.63085
    Z4       13.81645   0.00564   0.00000   0.00372   0.00232  13.81877
         Item               Value     Threshold  Converged?
 Maximum Force            0.157875     0.000450     NO 
 RMS     Force            0.082584     0.000300     NO 
 Maximum Displacement     0.170962     0.001800     NO 
 RMS     Displacement     0.086305     0.001200     NO 
 Predicted change in Energy=-5.618306D-02
 GradGradGradGradGradGradGradGradGradGradGradGradGradGradGradGradGradGrad

 1\1\GINC-H08R06\Force\UB3LYP\3-21G*\C1H3(2)\ACKGYDJ0BD\09-Jul-2026\0\\
 #force b3lyp/3-21G* Geom=PrintInputOrient\\Generated by MDDatasetMaker
  (Author: Jinzhe Zeng)\\0,2\C,6.69541,17.1504,7.35529\H,7.21244,17.788
 8,7.8663\H,6.22418,18.0367,7.21658\H,6.52149,15.6382,7.31135\\Version=
 EM64L-G16RevB.01\State=2-A\HF=-39.475794\S2=0.760565\S2-1=0.\S2A=0.750
 033\RMSD=9.657e-09\RMSF=8.258e-02\Dipole=-0.0331946,0.0543718,0.139872
 6\Quadrupole=-0.97854,1.912732,-0.934192,0.2437212,-0.0117625,0.295069
 4\PG=C01 [X(C1H3)]\\@


 "TIGER, TIGER BURNING BRIGHT
 IN THE FOREST OF THE NIGHT.
 WHAT IMMORTAL HAND OR EYE
 CAN FRAME THY FEARFUL SYMMETRYE?"
                     - WILLIAM BLAKE
 Job cpu time:       0 days  0 hours  3 minutes  5.3 seconds.
 Elapsed time:       0 days  0 hours  0 minutes  3.8 seconds.
 File lengths (MBytes):  RWF=      6 Int=      0 D2E=      0 Chk=      1 Scr=      1
 Normal termination of Gaussian 16 at Thu Jul  9 10:26:35 2026.
