 Entering Gaussian System, Link 0=g16
 Input=loop1_O2_05.gjf
 Output=loop1_O2_05.log
 Initial command:
 /work/home/ackgydj0bd/apprepo/gaussian/16b.01-none_v1.3/app/g16/l1.exe "/work/home/ackgydj0bd/apprepo/gaussian/16b.01-none_v1.3/app/g16/scratch/Gau-49239.inp" -scrdir="/work/home/ackgydj0bd/apprepo/gaussian/16b.01-none_v1.3/app/g16/scratch/"
 Entering Link 1 = /work/home/ackgydj0bd/apprepo/gaussian/16b.01-none_v1.3/app/g16/l1.exe PID=     49240.
  
 Copyright (c) 1988-2017, Gaussian, Inc.  All Rights Reserved.
  
 This is part of the Gaussian(R) 16 program.  It is based on
 the Gaussian(R) 09 system (copyright 2009, Gaussian, Inc.),
 the Gaussian(R) 03 system (copyright 2003, Gaussian, Inc.),
 the Gaussian(R) 98 system (copyright 1998, Gaussian, Inc.),
 the Gaussian(R) 94 system (copyright 1995, Gaussian, Inc.),
 the Gaussian 92(TM) system (copyright 1992, Gaussian, Inc.),
 the Gaussian 90(TM) system (copyright 1990, Gaussian, Inc.),
 the Gaussian 88(TM) system (copyright 1988, Gaussian, Inc.),
 the Gaussian 86(TM) system (copyright 1986, Carnegie Mellon
 University), and the Gaussian 82(TM) system (copyright 1983,
 Carnegie Mellon University). Gaussian is a federally registered
 trademark of Gaussian, Inc.
  
 This software contains proprietary and confidential information,
 including trade secrets, belonging to Gaussian, Inc.
  
 This software is provided under written license and may be
 used, copied, transmitted, or stored only in accord with that
 written license.
  
 The following legend is applicable only to US Government
 contracts under FAR:
  
                    RESTRICTED RIGHTS LEGEND
  
 Use, reproduction and disclosure by the US Government is
 subject to restrictions as set forth in subparagraphs (a)
 and (c) of the Commercial Computer Software - Restricted
 Rights clause in FAR 52.227-19.
  
 Gaussian, Inc.
 340 Quinnipiac St., Bldg. 40, Wallingford CT 06492
  
  
 ---------------------------------------------------------------
 Warning -- This program may not be used in any manner that
 competes with the business of Gaussian, Inc. or will provide
 assistance to any competitor of Gaussian, Inc.  The licensee
 of this program is prohibited from giving any competitor of
 Gaussian, Inc. access to this program.  By using this program,
 the user acknowledges that Gaussian, Inc. is engaged in the
 business of creating and licensing software in the field of
 computational chemistry and represents and warrants to the
 licensee that it is not a competitor of Gaussian, Inc. and that
 it will not use this program in any manner prohibited above.
 ---------------------------------------------------------------
  

 Cite this work as:
 Gaussian 16, Revision B.01,
 M. J. Frisch, G. W. Trucks, H. B. Schlegel, G. E. Scuseria, 
 M. A. Robb, J. R. Cheeseman, G. Scalmani, V. Barone, 
 G. A. Petersson, H. Nakatsuji, X. Li, M. Caricato, A. V. Marenich, 
 J. Bloino, B. G. Janesko, R. Gomperts, B. Mennucci, H. P. Hratchian, 
 J. V. Ortiz, A. F. Izmaylov, J. L. Sonnenberg, D. Williams-Young, 
 F. Ding, F. Lipparini, F. Egidi, J. Goings, B. Peng, A. Petrone, 
 T. Henderson, D. Ranasinghe, V. G. Zakrzewski, J. Gao, N. Rega, 
 G. Zheng, W. Liang, M. Hada, M. Ehara, K. Toyota, R. Fukuda, 
 J. Hasegawa, M. Ishida, T. Nakajima, Y. Honda, O. Kitao, H. Nakai, 
 T. Vreven, K. Throssell, J. A. Montgomery, Jr., J. E. Peralta, 
 F. Ogliaro, M. J. Bearpark, J. J. Heyd, E. N. Brothers, K. N. Kudin, 
 V. N. Staroverov, T. A. Keith, R. Kobayashi, J. Normand, 
 K. Raghavachari, A. P. Rendell, J. C. Burant, S. S. Iyengar, 
 J. Tomasi, M. Cossi, J. M. Millam, M. Klene, C. Adamo, R. Cammi, 
 J. W. Ochterski, R. L. Martin, K. Morokuma, O. Farkas, 
 J. B. Foresman, and D. J. Fox, Gaussian, Inc., Wallingford CT, 2016.
 
 ******************************************
 Gaussian 16:  EM64L-G16RevB.01 20-Dec-2017
                 9-Jul-2026 
 ******************************************
 %nproc=64
 Will use up to   64 processors via shared memory.
 -----------------------------------------
 #force b3lyp/3-21G* Geom=PrintInputOrient
 -----------------------------------------
 1/10=7,30=1,38=1/1,3;
 2/9=2000,12=2,17=6,18=5,40=1/2;
 3/5=5,7=1,11=2,25=1,30=1,71=1,74=-5/1,2,3;
 4//1;
 5/5=2,38=5/2;
 6/7=2,8=2,9=2,10=2,28=1/1;
 7/29=1/1,2,3,16;
 1/10=7,30=1/3;
 99//99;
 -------------------------------------------------
 Generated by MDDatasetMaker (Author: Jinzhe Zeng)
 -------------------------------------------------
 Symbolic Z-matrix:
 Charge =  0 Multiplicity = 3
 C                    -2.183     21.625    21.734 
 H                    -2.165     22.322    22.547 
 H                    -2.954     20.902    21.901 
 H                    -1.237     21.13     21.668 
 H                    -2.377     22.148    20.821 
 O                     0.182     20.5      20.914 
 O                     0.11      19.586    21.626 
 

 GradGradGradGradGradGradGradGradGradGradGradGradGradGradGradGradGradGrad
 Berny optimization.
 Initialization pass.
 Trust Radius=3.00D-01 FncErr=1.00D-07 GrdErr=1.00D-07 EigMax=2.50D+02 EigMin=1.00D-04
 Number of steps in this run=      2 maximum allowed number of steps=      2.
 GradGradGradGradGradGradGradGradGradGradGradGradGradGradGradGradGradGrad

                          Input orientation:                          
 ---------------------------------------------------------------------
 Center     Atomic      Atomic             Coordinates (Angstroms)
 Number     Number       Type             X           Y           Z
 ---------------------------------------------------------------------
      1          6           0       -2.183000   21.625000   21.734000
      2          1           0       -2.165000   22.322000   22.547000
      3          1           0       -2.954000   20.902000   21.901000
      4          1           0       -1.237000   21.130000   21.668000
      5          1           0       -2.377000   22.148000   20.821000
      6          8           0        0.182000   20.500000   20.914000
      7          8           0        0.110000   19.586000   21.626000
 ---------------------------------------------------------------------
                    Distance matrix (angstroms):
                    1          2          3          4          5
     1  C    0.000000
     2  H    1.071028   0.000000
     3  H    1.070074   1.748210   0.000000
     4  H    1.069718   1.747767   1.747673   0.000000
     5  H    1.069922   1.747654   1.746953   1.747379   0.000000
     6  O    2.744312   3.390396   3.312140   1.725971   3.045166
     7  O    3.070348   3.675536   3.345979   2.049417   3.660196
                    6          7
     6  O    0.000000
     7  O    1.160829   0.000000
 Stoichiometry    CH4O2(3)
 Framework group  C1[X(CH4O2)]
 Deg. of freedom    15
 Full point group                 C1      NOp   1
 Largest Abelian subgroup         C1      NOp   1
 Largest concise Abelian subgroup C1      NOp   1
                         Standard orientation:                         
 ---------------------------------------------------------------------
 Center     Atomic      Atomic             Coordinates (Angstroms)
 Number     Number       Type             X           Y           Z
 ---------------------------------------------------------------------
      1          6           0       -1.754978   -0.056843   -0.000123
      2          1           0       -2.255552   -0.170060    0.939935
      3          1           0       -1.983646   -0.891979   -0.628866
      4          1           0       -0.698650   -0.010127    0.162010
      5          1           0       -2.084159    0.845041   -0.472329
      6          8           0        0.912984    0.585986   -0.000041
      7          8           0        1.281000   -0.514963    0.000039
 ---------------------------------------------------------------------
 Rotational constants (GHZ):          39.2973527           5.5513934           5.0128698
 Standard basis: 3-21G* (6D, 7F)
 There are    35 symmetry adapted cartesian basis functions of A   symmetry.
 There are    35 symmetry adapted basis functions of A   symmetry.
    35 basis functions,    57 primitive gaussians,    35 cartesian basis functions
    14 alpha electrons       12 beta electrons
       nuclear repulsion energy        72.3968845875 Hartrees.
 NAtoms=    7 NActive=    7 NUniq=    7 SFac= 1.00D+00 NAtFMM=   60 NAOKFM=F Big=F
 Integral buffers will be    131072 words long.
 Raffenetti 2 integral format.
 Two-electron integral symmetry is turned on.
 One-electron integrals computed using PRISM.
 PrsmSu:  requested number of processors reduced to:  31 ShMem   1 Linda.
 NBasis=    35 RedAO= T EigKep=  2.47D-02  NBF=    35
 NBsUse=    35 1.00D-06 EigRej= -1.00D+00 NBFU=    35
 ExpMin= 1.83D-01 ExpMax= 3.22D+02 ExpMxC= 3.22D+02 IAcc=3 IRadAn=         5 AccDes= 0.00D+00
 Harris functional with IExCor=  402 and IRadAn=       5 diagonalized for initial guess.
 HarFok:  IExCor=  402 AccDes= 0.00D+00 IRadAn=         5 IDoV= 1 UseB2=F ITyADJ=14
 ICtDFT=  3500011 ScaDFX=  1.000000  1.000000  1.000000  1.000000
 FoFCou: FMM=F IPFlag=           0 FMFlag=      100000 FMFlg1=           0
         NFxFlg=           0 DoJE=T BraDBF=F KetDBF=T FulRan=T
         wScrn=  0.000000 ICntrl=       500 IOpCl=  0 I1Cent=   200000004 NGrid=           0
         NMat0=    1 NMatS0=      1 NMatT0=    0 NMatD0=    1 NMtDS0=    0 NMtDT0=    0
 Petite list used in FoFCou.
 Initial guess <Sx>= 0.0000 <Sy>= 0.0000 <Sz>= 1.0000 <S**2>= 2.0000 S= 1.0000
 Keep R1 and R2 ints in memory in canonical form, NReq=55694677.
 Requested convergence on RMS density matrix=1.00D-08 within 128 cycles.
 Requested convergence on MAX density matrix=1.00D-06.
 Requested convergence on             energy=1.00D-06.
 No special actions if energy rises.
 Integral accuracy reduced to 1.0D-05 until final iterations.
 Initial convergence to 1.0D-05 achieved.  Increase integral accuracy.
 SCF Done:  E(UB3LYP) =  -189.747122150     A.U. after   13 cycles
            NFock= 13  Conv=0.59D-08     -V/T= 2.0044
 <Sx>= 0.0000 <Sy>= 0.0000 <Sz>= 1.0000 <S**2>= 2.0043 S= 1.0014
 <L.S>= 0.000000000000E+00
 Annihilation of the first spin contaminant:
 S**2 before annihilation     2.0043,   after     2.0000

 **********************************************************************

            Population analysis using the SCF Density.

 **********************************************************************

 Orbital symmetries:
 Alpha Orbitals:
       Occupied  (A) (A) (A) (A) (A) (A) (A) (A) (A) (A) (A) (A)
                 (A) (A)
       Virtual   (A) (A) (A) (A) (A) (A) (A) (A) (A) (A) (A) (A)
                 (A) (A) (A) (A) (A) (A) (A) (A) (A)
 Beta  Orbitals:
       Occupied  (A) (A) (A) (A) (A) (A) (A) (A) (A) (A) (A) (A)
       Virtual   (A) (A) (A) (A) (A) (A) (A) (A) (A) (A) (A) (A)
                 (A) (A) (A) (A) (A) (A) (A) (A) (A) (A) (A)
 The electronic state is 3-A.
 Alpha  occ. eigenvalues --  -19.19541 -19.19201 -10.07822  -1.38340  -0.81067
 Alpha  occ. eigenvalues --   -0.69469  -0.59260  -0.58412  -0.53724  -0.38675
 Alpha  occ. eigenvalues --   -0.38625  -0.37929  -0.28844  -0.28563
 Alpha virt. eigenvalues --    0.16539   0.20611   0.20671   0.27090   0.27598
 Alpha virt. eigenvalues --    0.69754   0.69906   0.70534   1.05307   1.07946
 Alpha virt. eigenvalues --    1.08070   1.13165   1.27803   1.30657   1.38634
 Alpha virt. eigenvalues --    1.40964   1.46092   1.49629   1.76073   2.55841
 Alpha virt. eigenvalues --    2.74658
  Beta  occ. eigenvalues --  -19.16721 -19.16399 -10.07805  -1.32501  -0.72523
  Beta  occ. eigenvalues --   -0.69087  -0.50704  -0.49127  -0.48040  -0.38626
  Beta  occ. eigenvalues --   -0.38593  -0.36427
  Beta virt. eigenvalues --   -0.09339  -0.09062   0.16602   0.20638   0.20704
  Beta virt. eigenvalues --    0.27935   0.32278   0.69860   0.69970   0.70743
  Beta virt. eigenvalues --    1.05446   1.08007   1.08111   1.13987   1.33335
  Beta virt. eigenvalues --    1.34998   1.44696   1.48117   1.51342   1.52921
  Beta virt. eigenvalues --    1.76794   2.60337   2.79999
          Condensed to atoms (all electrons):
               1          2          3          4          5          6
     1  C    5.415794   0.364928   0.365737   0.323604   0.371921  -0.020257
     2  H    0.364928   0.522306  -0.026040  -0.024049  -0.026530   0.000356
     3  H    0.365737  -0.026040   0.523733  -0.025435  -0.027094   0.000397
     4  H    0.323604  -0.024049  -0.025435   0.523238  -0.027636   0.014134
     5  H    0.371921  -0.026530  -0.027094  -0.027636   0.518964   0.000199
     6  O   -0.020257   0.000356   0.000397   0.014134   0.000199   7.998150
     7  O   -0.003022   0.000057   0.000023  -0.006004   0.000147  -0.009876
               7
     1  C   -0.003022
     2  H    0.000057
     3  H    0.000023
     4  H   -0.006004
     5  H    0.000147
     6  O   -0.009876
     7  O    8.006695
          Atomic-Atomic Spin Densities.
               1          2          3          4          5          6
     1  C   -0.002803   0.000271  -0.000871   0.010901   0.000800  -0.003000
     2  H    0.000271   0.000587   0.000309  -0.000705  -0.000283   0.000127
     3  H   -0.000871   0.000309   0.002583  -0.000464  -0.000366   0.000266
     4  H    0.010901  -0.000705  -0.000464  -0.004575  -0.000217  -0.011527
     5  H    0.000800  -0.000283  -0.000366  -0.000217  -0.000100  -0.000302
     6  O   -0.003000   0.000127   0.000266  -0.011527  -0.000302   1.365476
     7  O    0.004209  -0.000070  -0.000246  -0.002443   0.000038  -0.355600
               7
     1  C    0.004209
     2  H   -0.000070
     3  H   -0.000246
     4  H   -0.002443
     5  H    0.000038
     6  O   -0.355600
     7  O    1.357176
 Mulliken charges and spin densities:
               1          2
     1  C   -0.818705   0.009507
     2  H    0.188970   0.000237
     3  H    0.188678   0.001212
     4  H    0.222149  -0.009029
     5  H    0.190030  -0.000431
     6  O    0.016897   0.995440
     7  O    0.011981   1.003064
 Sum of Mulliken charges =   0.00000   2.00000
 Mulliken charges and spin densities with hydrogens summed into heavy atoms:
               1          2
     1  C   -0.028878   0.001496
     6  O    0.016897   0.995440
     7  O    0.011981   1.003064
 Electronic spatial extent (au):  <R**2>=            255.2477
 Charge=              0.0000 electrons
 Dipole moment (field-independent basis, Debye):
    X=              0.4494    Y=              0.0558    Z=             -0.0058  Tot=              0.4529
 Quadrupole moment (field-independent basis, Debye-Ang):
   XX=            -18.2892   YY=            -18.7141   ZZ=            -17.7138
   XY=              0.3047   XZ=             -0.0087   YZ=             -0.0055
 Traceless Quadrupole moment (field-independent basis, Debye-Ang):
   XX=             -0.0502   YY=             -0.4750   ZZ=              0.5252
   XY=              0.3047   XZ=             -0.0087   YZ=             -0.0055
 Octapole moment (field-independent basis, Debye-Ang**2):
  XXX=             14.3553  YYY=              0.4391  ZZZ=              0.3339  XYY=              2.8520
  XXY=              1.0479  XXZ=              0.2134  XZZ=              3.8450  YZZ=             -0.0174
  YYZ=             -0.5629  XYZ=              0.0622
 Hexadecapole moment (field-independent basis, Debye-Ang**3):
 XXXX=           -250.9469 YYYY=            -37.3880 ZZZZ=            -19.8899 XXXY=              0.2191
 XXXZ=             -1.1237 YYYX=             -1.2186 YYYZ=              0.1042 ZZZX=             -0.9377
 ZZZY=             -0.0090 XXYY=            -47.2178 XXZZ=            -42.5671 YYZZ=             -9.5233
 XXYZ=             -0.2832 YYXZ=              1.2027 ZZXY=              0.1469
 N-N= 7.239688458746D+01 E-N=-5.907096251698D+02  KE= 1.889164897107D+02
                          Isotropic Fermi Contact Couplings
        Atom                 a.u.       MegaHertz       Gauss      10(-4) cm-1
     1  C(13)              0.00117       0.65926       0.23524       0.21991
     2  H(1)               0.00016       0.35454       0.12651       0.11826
     3  H(1)               0.00058       1.29581       0.46238       0.43224
     4  H(1)               0.00015       0.34297       0.12238       0.11440
     5  H(1)              -0.00001      -0.01121      -0.00400      -0.00374
     6  O(17)              0.17163     -52.02004     -18.56204     -17.35202
     7  O(17)              0.16474     -49.93264     -17.81721     -16.65574
 --------------------------------------------------------
       Center         ----  Spin Dipole Couplings  ----
                      3XX-RR        3YY-RR        3ZZ-RR
 --------------------------------------------------------
     1   Atom        0.032871     -0.014659     -0.018212
     2   Atom        0.011115     -0.006787     -0.004327
     3   Atom        0.011955     -0.004815     -0.007140
     4   Atom        0.074344     -0.029599     -0.044745
     5   Atom        0.014526     -0.006466     -0.008060
     6   Atom        0.767889     -1.781392      1.013503
     7   Atom        0.681756     -1.797131      1.115375
 --------------------------------------------------------
                        XY            XZ            YZ
 --------------------------------------------------------
     1   Atom        0.009584      0.002171      0.000598
     2   Atom        0.001625     -0.005552     -0.000593
     3   Atom        0.005786      0.004079      0.002274
     4   Atom        0.019271     -0.010232     -0.002142
     5   Atom       -0.005039      0.003883     -0.001329
     6   Atom        0.961864      0.003685     -0.003281
     7   Atom        0.923889      0.002261     -0.000589
 --------------------------------------------------------


 ---------------------------------------------------------------------------------
              Anisotropic Spin Dipole Couplings in Principal Axis System
 ---------------------------------------------------------------------------------

       Atom             a.u.   MegaHertz   Gauss  10(-4) cm-1        Axes

              Baa    -0.0183    -2.459    -0.877    -0.820 -0.0231 -0.1017  0.9945
     1 C(13)  Bbb    -0.0165    -2.214    -0.790    -0.739 -0.1937  0.9764  0.0953
              Bcc     0.0348     4.673     1.668     1.559  0.9808  0.1905  0.0423
 
              Baa    -0.0069    -3.705    -1.322    -1.236 -0.0581  0.9931  0.1017
     2 H(1)   Bbb    -0.0061    -3.261    -1.163    -1.088  0.3125 -0.0786  0.9466
              Bcc     0.0131     6.965     2.485     2.323  0.9481  0.0868 -0.3058
 
              Baa    -0.0086    -4.563    -1.628    -1.522 -0.0425 -0.4706  0.8813
     3 H(1)   Bbb    -0.0062    -3.289    -1.174    -1.097 -0.3608  0.8298  0.4257
              Bcc     0.0147     7.852     2.802     2.619  0.9317  0.2999  0.2051
 
              Baa    -0.0456   -24.350    -8.689    -8.122  0.0788  0.0383  0.9962
     4 H(1)   Bbb    -0.0330   -17.633    -6.292    -5.882 -0.1788  0.9836 -0.0237
              Bcc     0.0787    41.983    14.981    14.004  0.9807  0.1762 -0.0844
 
              Baa    -0.0089    -4.741    -1.692    -1.582 -0.0808  0.3451  0.9351
     5 H(1)   Bbb    -0.0075    -3.985    -1.422    -1.329  0.2643  0.9120 -0.3138
              Bcc     0.0164     8.726     3.114     2.911  0.9610 -0.2218  0.1649
 
              Baa    -2.1036   152.215    54.314    50.773 -0.3176  0.9482  0.0014
     6 O(17)  Bbb     1.0134   -73.331   -26.166   -24.461 -0.0299 -0.0115  0.9995
              Bcc     1.0902   -78.884   -28.148   -26.313  0.9477  0.3174  0.0320
 
              Baa    -2.1036   152.214    54.314    50.773 -0.3148  0.9491  0.0004
     7 O(17)  Bbb     0.9882   -71.504   -25.514   -23.851  0.9490  0.3148 -0.0154
              Bcc     1.1154   -80.710   -28.799   -26.922  0.0148  0.0045  0.9999
 

 ---------------------------------------------------------------------------------

 PrsmSu:  requested number of processors reduced to:  31 ShMem   1 Linda.
 Calling FoFJK, ICntrl=      2127 FMM=F ISym2X=0 I1Cent= 0 IOpClX= 1 NMat=1 NMatS=1 NMatT=0.
 ***** Axes restored to original set *****
 -------------------------------------------------------------------
 Center     Atomic                   Forces (Hartrees/Bohr)
 Number     Number              X              Y              Z
 -------------------------------------------------------------------
      1        6           0.001464821   -0.000229810    0.005141745
      2        1          -0.001178167    0.011149886    0.012447045
      3        1          -0.013282147   -0.011171265    0.002981203
      4        1          -0.008852240    0.006860402    0.001938508
      5        1          -0.002919473    0.008436323   -0.014580787
      6        8           0.032337841    0.160082810   -0.139396768
      7        8          -0.007570634   -0.175128346    0.131469054
 -------------------------------------------------------------------
 Cartesian Forces:  Max     0.175128346 RMS     0.067314443

 GradGradGradGradGradGradGradGradGradGradGradGradGradGradGradGradGradGrad
 Berny optimization.
 Search for a local minimum.
 Step number   1 out of a maximum of    2
 All quantities printed in internal units (Hartrees-Bohrs-Radians)
 Second derivative matrix not updated -- first step.
 ITU=  0
     Eigenvalues ---    0.00000   0.00000   0.00000   0.02187   0.11734
     Eigenvalues ---    0.11738   0.14162   0.14191   0.14437   0.37207
     Eigenvalues ---    0.38143   0.87394   0.88231   0.95882   2.54505
 Eigenvalue     1 is  -5.55D-16 should be greater than     0.000000 Eigenvector:
                          X6        X7        Y7        Z6        Z7
   1                    0.58059  -0.57438   0.34262  -0.31941   0.14891
                          Y6        Y4        Y2        Y1        Y3
   1                   -0.11318  -0.10062  -0.10062  -0.10062  -0.10062
 Eigenvalue     2 is  -4.44D-16 should be greater than     0.000000 Eigenvector:
                          X6        X5        X4        X3        X1
   1                    0.40648  -0.29835  -0.29834  -0.29834  -0.29832
                          X2        X7        Y6        Y7        Y5
   1                   -0.29826   0.27377  -0.24382  -0.19145   0.19091
 Eigenvalue     3 is   5.93D-11 Eigenvector:
                          Z4        Y4        X5        X3        Y3
   1                    0.46022  -0.44334   0.43956  -0.35678   0.29395
                          Y5        X4        Y2        Z5        Z2
   1                   -0.22574  -0.20100   0.15957  -0.14040  -0.12733
 Quadratic step=2.563D+02 exceeds max=3.000D-01 adjusted using Lamda=-9.675D-02.
 Angle between NR and scaled steps=  28.05 degrees.
 Angle between quadratic step and forces=  61.41 degrees.
 Linear search not attempted -- first point.
 B after Tr=    -0.011704   -0.029571    0.002620
         Rot=    1.000000    0.000140    0.000011    0.000502 Ang=   0.06 deg.
 Variable       Old X    -DE/DX   Delta X   Delta X   Delta X     New X
                                 (Linear)    (Quad)   (Total)
    X1       -4.12527   0.00146   0.00000  -0.08495  -0.05651  -4.18178
    Y1       40.86533  -0.00023   0.00000   0.04474   0.03090  40.89622
    Z1       41.07131   0.00514   0.00000   0.02987   0.02093  41.09224
    X2       -4.09126  -0.00118   0.00000  -0.05875  -0.02901  -4.12026
    Y2       42.18247   0.01115   0.00000   0.05935   0.04588  42.22834
    Z2       42.60765   0.01245   0.00000   0.05234   0.04302  42.65068
    X3       -5.58225  -0.01328   0.00000  -0.08262  -0.05561  -5.63786
    Y3       39.49906  -0.01117   0.00000  -0.00621  -0.01851  39.48054
    Z3       41.38689   0.00298   0.00000   0.02427   0.01569  41.40259
    X4       -2.33759  -0.00885   0.00000  -0.08557  -0.05806  -2.39565
    Y4       39.92991   0.00686   0.00000   0.05965   0.04398  39.97389
    Z4       40.94659   0.00194   0.00000   0.02905   0.02041  40.96699
    X5       -4.49188  -0.00292   0.00000  -0.05388  -0.02441  -4.51629
    Y5       41.85365   0.00844   0.00000   0.04299   0.02898  41.88264
    Z5       39.34599  -0.01458   0.00000  -0.01802  -0.02725  39.31874
    X6        0.34393   0.03234   0.00000   0.15767   0.18396   0.52789
    Y6       38.73939   0.16008   0.00000  -0.00865  -0.02769  38.71169
    Z6       39.52173  -0.13940   0.00000  -0.10558  -0.11380  39.40793
    X7        0.20787  -0.00757   0.00000   0.01519   0.03963   0.24750
    Y7       37.01218  -0.17513   0.00000  -0.08518  -0.10352  36.90865
    Z7       40.86722   0.13147   0.00000   0.04872   0.04099  40.90821
         Item               Value     Threshold  Converged?
 Maximum Force            0.175128     0.000450     NO 
 RMS     Force            0.067314     0.000300     NO 
 Maximum Displacement     0.183959     0.001800     NO 
 RMS     Displacement     0.062675     0.001200     NO 
 Predicted change in Energy=-2.648202D-02
 GradGradGradGradGradGradGradGradGradGradGradGradGradGradGradGradGradGrad

 1\1\GINC-H08R06\Force\UB3LYP\3-21G*\C1H4O2(3)\ACKGYDJ0BD\09-Jul-2026\0
 \\#force b3lyp/3-21G* Geom=PrintInputOrient\\Generated by MDDatasetMak
 er (Author: Jinzhe Zeng)\\0,3\C,-2.183,21.625,21.734\H,-2.165,22.322,2
 2.547\H,-2.954,20.902,21.901\H,-1.237,21.13,21.668\H,-2.377,22.148,20.
 821\O,0.182,20.5,20.914\O,0.11,19.586,21.626\\Version=EM64L-G16RevB.01
 \State=3-A\HF=-189.7471222\S2=2.004327\S2-1=0.\S2A=2.00001\RMSD=5.865e
 -09\RMSF=6.731e-02\Dipole=0.1487007,-0.0888852,-0.0416455\Quadrupole=0
 .1451791,-0.218908,0.0737289,0.109491,0.0809989,0.3672881\PG=C01 [X(C1
 H4O2)]\\@


 Just remember, when you're over the hill, you begin to pick up speed.
 -- Charles Schulz
 Job cpu time:       0 days  0 hours  2 minutes 42.0 seconds.
 Elapsed time:       0 days  0 hours  0 minutes  3.3 seconds.
 File lengths (MBytes):  RWF=      6 Int=      0 D2E=      0 Chk=      1 Scr=      1
 Normal termination of Gaussian 16 at Thu Jul  9 10:30:56 2026.
