 Entering Gaussian System, Link 0=g16
 Input=loop1_C1_02.gjf
 Output=loop1_C1_02.log
 Initial command:
 /work/home/ackgydj0bd/apprepo/gaussian/16b.01-none_v1.3/app/g16/l1.exe "/work/home/ackgydj0bd/apprepo/gaussian/16b.01-none_v1.3/app/g16/scratch/Gau-230707.inp" -scrdir="/work/home/ackgydj0bd/apprepo/gaussian/16b.01-none_v1.3/app/g16/scratch/"
 Entering Link 1 = /work/home/ackgydj0bd/apprepo/gaussian/16b.01-none_v1.3/app/g16/l1.exe PID=    230708.
  
 Copyright (c) 1988-2017, Gaussian, Inc.  All Rights Reserved.
  
 This is part of the Gaussian(R) 16 program.  It is based on
 the Gaussian(R) 09 system (copyright 2009, Gaussian, Inc.),
 the Gaussian(R) 03 system (copyright 2003, Gaussian, Inc.),
 the Gaussian(R) 98 system (copyright 1998, Gaussian, Inc.),
 the Gaussian(R) 94 system (copyright 1995, Gaussian, Inc.),
 the Gaussian 92(TM) system (copyright 1992, Gaussian, Inc.),
 the Gaussian 90(TM) system (copyright 1990, Gaussian, Inc.),
 the Gaussian 88(TM) system (copyright 1988, Gaussian, Inc.),
 the Gaussian 86(TM) system (copyright 1986, Carnegie Mellon
 University), and the Gaussian 82(TM) system (copyright 1983,
 Carnegie Mellon University). Gaussian is a federally registered
 trademark of Gaussian, Inc.
  
 This software contains proprietary and confidential information,
 including trade secrets, belonging to Gaussian, Inc.
  
 This software is provided under written license and may be
 used, copied, transmitted, or stored only in accord with that
 written license.
  
 The following legend is applicable only to US Government
 contracts under FAR:
  
                    RESTRICTED RIGHTS LEGEND
  
 Use, reproduction and disclosure by the US Government is
 subject to restrictions as set forth in subparagraphs (a)
 and (c) of the Commercial Computer Software - Restricted
 Rights clause in FAR 52.227-19.
  
 Gaussian, Inc.
 340 Quinnipiac St., Bldg. 40, Wallingford CT 06492
  
  
 ---------------------------------------------------------------
 Warning -- This program may not be used in any manner that
 competes with the business of Gaussian, Inc. or will provide
 assistance to any competitor of Gaussian, Inc.  The licensee
 of this program is prohibited from giving any competitor of
 Gaussian, Inc. access to this program.  By using this program,
 the user acknowledges that Gaussian, Inc. is engaged in the
 business of creating and licensing software in the field of
 computational chemistry and represents and warrants to the
 licensee that it is not a competitor of Gaussian, Inc. and that
 it will not use this program in any manner prohibited above.
 ---------------------------------------------------------------
  

 Cite this work as:
 Gaussian 16, Revision B.01,
 M. J. Frisch, G. W. Trucks, H. B. Schlegel, G. E. Scuseria, 
 M. A. Robb, J. R. Cheeseman, G. Scalmani, V. Barone, 
 G. A. Petersson, H. Nakatsuji, X. Li, M. Caricato, A. V. Marenich, 
 J. Bloino, B. G. Janesko, R. Gomperts, B. Mennucci, H. P. Hratchian, 
 J. V. Ortiz, A. F. Izmaylov, J. L. Sonnenberg, D. Williams-Young, 
 F. Ding, F. Lipparini, F. Egidi, J. Goings, B. Peng, A. Petrone, 
 T. Henderson, D. Ranasinghe, V. G. Zakrzewski, J. Gao, N. Rega, 
 G. Zheng, W. Liang, M. Hada, M. Ehara, K. Toyota, R. Fukuda, 
 J. Hasegawa, M. Ishida, T. Nakajima, Y. Honda, O. Kitao, H. Nakai, 
 T. Vreven, K. Throssell, J. A. Montgomery, Jr., J. E. Peralta, 
 F. Ogliaro, M. J. Bearpark, J. J. Heyd, E. N. Brothers, K. N. Kudin, 
 V. N. Staroverov, T. A. Keith, R. Kobayashi, J. Normand, 
 K. Raghavachari, A. P. Rendell, J. C. Burant, S. S. Iyengar, 
 J. Tomasi, M. Cossi, J. M. Millam, M. Klene, C. Adamo, R. Cammi, 
 J. W. Ochterski, R. L. Martin, K. Morokuma, O. Farkas, 
 J. B. Foresman, and D. J. Fox, Gaussian, Inc., Wallingford CT, 2016.
 
 ******************************************
 Gaussian 16:  EM64L-G16RevB.01 20-Dec-2017
                 9-Jul-2026 
 ******************************************
 %nproc=64
 Will use up to   64 processors via shared memory.
 -----------------------------------------
 #force b3lyp/3-21G* Geom=PrintInputOrient
 -----------------------------------------
 1/10=7,30=1,38=1/1,3;
 2/9=2000,12=2,17=6,18=5,40=1/2;
 3/5=5,7=1,11=2,25=1,30=1,71=1,74=-5/1,2,3;
 4//1;
 5/5=2,38=5/2;
 6/7=2,8=2,9=2,10=2,28=1/1;
 7/29=1/1,2,3,16;
 1/10=7,30=1/3;
 99//99;
 -------------------------------------------------
 Generated by MDDatasetMaker (Author: Jinzhe Zeng)
 -------------------------------------------------
 Symbolic Z-matrix:
 Charge =  0 Multiplicity = 3
 H                     7.612     7.01304   11.3994 
 H                     5.50425   6.87058   10.8097 
 C                     6.37559   6.3137    10.0333 
 

 GradGradGradGradGradGradGradGradGradGradGradGradGradGradGradGradGradGrad
 Berny optimization.
 Initialization pass.
 Trust Radius=3.00D-01 FncErr=1.00D-07 GrdErr=1.00D-07 EigMax=2.50D+02 EigMin=1.00D-04
 Number of steps in this run=      2 maximum allowed number of steps=      2.
 GradGradGradGradGradGradGradGradGradGradGradGradGradGradGradGradGradGrad

                          Input orientation:                          
 ---------------------------------------------------------------------
 Center     Atomic      Atomic             Coordinates (Angstroms)
 Number     Number       Type             X           Y           Z
 ---------------------------------------------------------------------
      1          1           0        7.612000    7.013040   11.399400
      2          1           0        5.504250    6.870580   10.809700
      3          6           0        6.375590    6.313700   10.033300
 ---------------------------------------------------------------------
                    Distance matrix (angstroms):
                    1          2          3
     1  H    0.000000
     2  H    2.193320   0.000000
     3  C    1.970791   1.293115   0.000000
 Stoichiometry    CH2(3)
 Framework group  CS[SG(CH2)]
 Deg. of freedom     3
 Full point group                 CS      NOp   2
 Largest Abelian subgroup         CS      NOp   2
 Largest concise Abelian subgroup C1      NOp   1
                         Standard orientation:                         
 ---------------------------------------------------------------------
 Center     Atomic      Atomic             Coordinates (Angstroms)
 Number     Number       Type             X           Y           Z
 ---------------------------------------------------------------------
      1          1           0        1.004277   -1.381924    0.000000
      2          1           0       -1.004277   -0.500811    0.000000
      3          6           0        0.000000    0.313789    0.000000
 ---------------------------------------------------------------------
 Rotational constants (GHZ):         330.3830725         139.8670452          98.2662256
 Standard basis: 3-21G* (6D, 7F)
 There are    11 symmetry adapted cartesian basis functions of A'  symmetry.
 There are     2 symmetry adapted cartesian basis functions of A"  symmetry.
 There are    11 symmetry adapted basis functions of A'  symmetry.
 There are     2 symmetry adapted basis functions of A"  symmetry.
    13 basis functions,    21 primitive gaussians,    13 cartesian basis functions
     5 alpha electrons        3 beta electrons
       nuclear repulsion energy         4.3076893044 Hartrees.
 NAtoms=    3 NActive=    3 NUniq=    3 SFac= 1.00D+00 NAtFMM=   60 NAOKFM=F Big=F
 Integral buffers will be    131072 words long.
 Raffenetti 2 integral format.
 Two-electron integral symmetry is turned on.
 One-electron integrals computed using PRISM.
 PrsmSu:  requested number of processors reduced to:  31 ShMem   1 Linda.
 NBasis=    13 RedAO= T EigKep=  9.53D-02  NBF=    11     2
 NBsUse=    13 1.00D-06 EigRej= -1.00D+00 NBFU=    11     2
 ExpMin= 1.83D-01 ExpMax= 1.72D+02 ExpMxC= 1.72D+02 IAcc=3 IRadAn=         5 AccDes= 0.00D+00
 Harris functional with IExCor=  402 and IRadAn=       5 diagonalized for initial guess.
 HarFok:  IExCor=  402 AccDes= 0.00D+00 IRadAn=         5 IDoV= 1 UseB2=F ITyADJ=14
 ICtDFT=  3500011 ScaDFX=  1.000000  1.000000  1.000000  1.000000
 FoFCou: FMM=F IPFlag=           0 FMFlag=      100000 FMFlg1=           0
         NFxFlg=           0 DoJE=T BraDBF=F KetDBF=T FulRan=T
         wScrn=  0.000000 ICntrl=       500 IOpCl=  0 I1Cent=   200000004 NGrid=           0
         NMat0=    1 NMatS0=      1 NMatT0=    0 NMatD0=    1 NMtDS0=    0 NMtDT0=    0
 Petite list used in FoFCou.
 Initial guess orbital symmetries:
 Alpha Orbitals:
       Occupied  (A') (A') (A') (A') (A")
       Virtual   (A') (A') (A") (A') (A') (A') (A') (A')
 Beta  Orbitals:
       Occupied  (A') (A') (A')
       Virtual   (A') (A") (A') (A') (A") (A') (A') (A') (A') (A')
 The electronic state of the initial guess is 3-A".
 Initial guess <Sx>= 0.0000 <Sy>= 0.0000 <Sz>= 1.0000 <S**2>= 2.0000 S= 1.0000
 Keep R1 and R2 ints in memory in symmetry-blocked form, NReq=55211669.
 Requested convergence on RMS density matrix=1.00D-08 within 128 cycles.
 Requested convergence on MAX density matrix=1.00D-06.
 Requested convergence on             energy=1.00D-06.
 No special actions if energy rises.
 Integral accuracy reduced to 1.0D-05 until final iterations.
 Initial convergence to 1.0D-05 achieved.  Increase integral accuracy.
 SCF Done:  E(UB3LYP) =  -38.7769911212     A.U. after   18 cycles
            NFock= 18  Conv=0.83D-08     -V/T= 2.0150
 <Sx>= 0.0000 <Sy>= 0.0000 <Sz>= 1.0000 <S**2>= 2.0727 S= 1.0241
 <L.S>= 0.000000000000E+00
 Annihilation of the first spin contaminant:
 S**2 before annihilation     2.0727,   after     2.0002

 **********************************************************************

            Population analysis using the SCF Density.

 **********************************************************************

 Orbital symmetries:
 Alpha Orbitals:
       Occupied  (A') (A') (A') (A') (A")
       Virtual   (A') (A') (A") (A') (A') (A') (A') (A')
 Beta  Orbitals:
       Occupied  (A') (A') (A')
       Virtual   (A') (A") (A') (A') (A") (A') (A') (A') (A') (A')
 The electronic state is 3-A".
 Alpha  occ. eigenvalues --  -10.22108  -0.61394  -0.33960  -0.31495  -0.23983
 Alpha virt. eigenvalues --   -0.08483   0.09123   0.67729   0.72299   0.76774
 Alpha virt. eigenvalues --    0.86003   0.94224   1.23909
  Beta  occ. eigenvalues --  -10.20246  -0.55355  -0.28167
  Beta virt. eigenvalues --   -0.16601  -0.05128  -0.01652   0.10945   0.76364
  Beta virt. eigenvalues --    0.76839   0.78413   0.90279   1.01741   1.28412
          Condensed to atoms (all electrons):
               1          2          3
     1  H    0.830316  -0.024377   0.112653
     2  H   -0.024377   0.702939   0.216794
     3  C    0.112653   0.216794   5.856604
          Atomic-Atomic Spin Densities.
               1          2          3
     1  H    0.687249   0.007566   0.007292
     2  H    0.007566  -0.037115  -0.008978
     3  C    0.007292  -0.008978   1.338106
 Mulliken charges and spin densities:
               1          2
     1  H    0.081408   0.702107
     2  H    0.104643  -0.038527
     3  C   -0.186051   1.336421
 Sum of Mulliken charges =   0.00000   2.00000
 Mulliken charges and spin densities with hydrogens summed into heavy atoms:
               1          2
     3  C    0.000000   2.000000
 Electronic spatial extent (au):  <R**2>=             34.0655
 Charge=              0.0000 electrons
 Dipole moment (field-independent basis, Debye):
    X=             -0.5124    Y=             -1.0649    Z=              0.0000  Tot=              1.1817
 Quadrupole moment (field-independent basis, Debye-Ang):
   XX=             -7.7557   YY=             -6.4690   ZZ=             -8.6907
   XY=             -1.1941   XZ=              0.0000   YZ=              0.0000
 Traceless Quadrupole moment (field-independent basis, Debye-Ang):
   XX=             -0.1172   YY=              1.1694   ZZ=             -1.0522
   XY=             -1.1941   XZ=              0.0000   YZ=              0.0000
 Octapole moment (field-independent basis, Debye-Ang**2):
  XXX=             -0.8683  YYY=             -1.4512  ZZZ=              0.0000  XYY=              0.2543
  XXY=             -0.9161  XXZ=              0.0000  XZZ=             -0.3596  YZZ=             -0.1283
  YYZ=              0.0000  XYZ=              0.0000
 Hexadecapole moment (field-independent basis, Debye-Ang**3):
 XXXX=            -20.1697 YYYY=            -21.0996 ZZZZ=             -9.0948 XXXY=              2.0031
 XXXZ=              0.0000 YYYX=              0.6132 YYYZ=              0.0000 ZZZX=              0.0000
 ZZZY=              0.0000 XXYY=             -6.0448 XXZZ=             -5.0652 YYZZ=             -5.6167
 XXYZ=              0.0000 YYXZ=              0.0000 ZZXY=              0.8253
 N-N= 4.307689304393D+00 E-N=-9.818096807724D+01  KE= 3.820451955223D+01
 Symmetry A'   KE= 3.696587778601D+01
 Symmetry A"   KE= 1.238641766213D+00
 Symmetry A'   SP= 1.000000000000D+00
 Symmetry A"   SP= 1.000000000000D+00
                          Isotropic Fermi Contact Couplings
        Atom                 a.u.       MegaHertz       Gauss      10(-4) cm-1
     1  H(1)               0.19020     425.09094     151.68302     141.79508
     2  H(1)              -0.00680     -15.19625      -5.42240      -5.06892
     3  C(13)              0.29465     165.61937      59.09711      55.24468
 --------------------------------------------------------
       Center         ----  Spin Dipole Couplings  ----
                      3XX-RR        3YY-RR        3ZZ-RR
 --------------------------------------------------------
     1   Atom        0.000833      0.010788     -0.011621
     2   Atom        0.041605     -0.003141     -0.038464
     3   Atom       -0.909204     -0.108812      1.018015
 --------------------------------------------------------
                        XY            XZ            YZ
 --------------------------------------------------------
     1   Atom       -0.022418      0.000000      0.000000
     2   Atom        0.059439      0.000000      0.000000
     3   Atom        0.098600      0.000000      0.000000
 --------------------------------------------------------


 ---------------------------------------------------------------------------------
              Anisotropic Spin Dipole Couplings in Principal Axis System
 ---------------------------------------------------------------------------------

       Atom             a.u.   MegaHertz   Gauss  10(-4) cm-1        Axes

              Baa    -0.0172    -9.152    -3.266    -3.053  0.7800  0.6258  0.0000
     1 H(1)   Bbb    -0.0116    -6.200    -2.212    -2.068  0.0000  0.0000  1.0000
              Bcc     0.0288    15.353     5.478     5.121 -0.6258  0.7800  0.0000
 
              Baa    -0.0443   -23.625    -8.430    -7.880 -0.5691  0.8223  0.0000
     2 H(1)   Bbb    -0.0385   -20.523    -7.323    -6.846  0.0000  0.0000  1.0000
              Bcc     0.0827    44.147    15.753    14.726  0.8223  0.5691  0.0000
 
              Baa    -0.9212  -123.612   -44.108   -41.233  0.9927 -0.1205  0.0000
     3 C(13)  Bbb    -0.0968   -12.996    -4.637    -4.335  0.1205  0.9927  0.0000
              Bcc     1.0180   136.608    48.745    45.568  0.0000  0.0000  1.0000
 

 ---------------------------------------------------------------------------------

 PrsmSu:  requested number of processors reduced to:  31 ShMem   1 Linda.
 Calling FoFJK, ICntrl=      2127 FMM=F ISym2X=1 I1Cent= 0 IOpClX= 1 NMat=1 NMatS=1 NMatT=0.
 ***** Axes restored to original set *****
 -------------------------------------------------------------------
 Center     Atomic                   Forces (Hartrees/Bohr)
 Number     Number              X              Y              Z
 -------------------------------------------------------------------
      1        1          -0.010212616   -0.016614050   -0.029238985
      2        1           0.021589751   -0.029176238   -0.044714957
      3        6          -0.011377135    0.045790287    0.073953942
 -------------------------------------------------------------------
 Cartesian Forces:  Max     0.073953942 RMS     0.036889347

 GradGradGradGradGradGradGradGradGradGradGradGradGradGradGradGradGradGrad
 Berny optimization.
 Search for a local minimum.
 Step number   1 out of a maximum of    2
 All quantities printed in internal units (Hartrees-Bohrs-Radians)
 Second derivative matrix not updated -- first step.
 The second derivative matrix:
                          X1        Y1        Z1        X2        Y2
           X1           1.00000
           Y1           0.00000   1.00000
           Z1           0.00000   0.00000   1.00000
           X2           0.00000   0.00000   0.00000   0.09350
           Y2           0.00000   0.00000   0.00000   0.01869   0.76264
           Z2           0.00000   0.00000   0.00000  -0.12114  -0.39011
           X3           0.00000   0.00000   0.00000  -0.08604   0.05499
           Y3           0.00000   0.00000   0.00000   0.05499  -0.03514
           Z3           0.00000   0.00000   0.00000   0.07666  -0.04900
                          Z2        X3        Y3        Z3
           Z2           0.33335
           X3           0.07666   0.09350
           Y3          -0.04900   0.01869   0.76264
           Z3          -0.06831  -0.12114  -0.39011   0.33335
 ITU=  0
     Eigenvalues ---    0.25492   0.33231   0.87503
 Angle between quadratic step and forces=  28.63 degrees.
 ClnCor:  largest displacement from symmetrization is 9.81D-17 for atom     2.
 Linear search not attempted -- first point.
 ClnCor:  largest displacement from symmetrization is 1.78D-15 for atom     1.
 B after Tr=    -0.233987    0.108405    0.140337
         Rot=    0.999989   -0.000399   -0.003944    0.002381 Ang=  -0.53 deg.
 Variable       Old X    -DE/DX   Delta X   Delta X   Delta X     New X
                                 (Linear)    (Quad)   (Total)
    X1       14.38460  -0.01021   0.00000   0.02618   0.02378  14.40837
    Y1       13.25272  -0.01661   0.00000  -0.04867  -0.02654  13.22619
    Z1       21.54174  -0.02924   0.00000  -0.07624  -0.03997  21.50177
    X2       10.40153   0.02159   0.00000   0.04631   0.03276  10.43429
    Y2       12.98351  -0.02918   0.00000  -0.11967  -0.07768  12.90584
    Z2       20.42737  -0.04471   0.00000  -0.19049  -0.12319  20.30418
    X3       12.04812  -0.01138   0.00000  -0.02960  -0.05654  11.99158
    Y3       11.93116   0.04579   0.00000   0.06872   0.10421  12.03537
    Z3       18.96019   0.07395   0.00000   0.10889   0.16316  19.12335
         Item               Value     Threshold  Converged?
 Maximum Force            0.073954     0.000450     NO 
 RMS     Force            0.036889     0.000300     NO 
 Maximum Displacement     0.163164     0.001800     NO 
 RMS     Displacement     0.085524     0.001200     NO 
 Predicted change in Energy=-1.676636D-02
 GradGradGradGradGradGradGradGradGradGradGradGradGradGradGradGradGradGrad

 1\1\GINC-H08R06\Force\UB3LYP\3-21G*\C1H2(3)\ACKGYDJ0BD\09-Jul-2026\0\\
 #force b3lyp/3-21G* Geom=PrintInputOrient\\Generated by MDDatasetMaker
  (Author: Jinzhe Zeng)\\0,3\H,7.612,7.01304,11.3994\H,5.50425,6.87058,
 10.8097\C,6.37559,6.3137,10.0333\\Version=EM64L-G16RevB.01\State=3-A"\
 HF=-38.7769911\S2=2.072749\S2-1=0.\S2A=2.000176\RMSD=8.272e-09\RMSF=3.
 689e-02\Dipole=-0.1377514,0.2396065,0.3738533\Quadrupole=0.1823706,-0.
 4853326,0.302962,0.4370733,0.8859887,0.5653079\PG=CS [SG(C1H2)]\\@


 REALITY IS FOR PEOPLE WHO CAN'T FACE SCIENCE FICTION.
 Job cpu time:       0 days  0 hours  2 minutes 35.5 seconds.
 Elapsed time:       0 days  0 hours  0 minutes  3.2 seconds.
 File lengths (MBytes):  RWF=      6 Int=      0 D2E=      0 Chk=      1 Scr=      1
 Normal termination of Gaussian 16 at Thu Jul  9 10:25:56 2026.
