 Entering Gaussian System, Link 0=g16
 Input=loop1_H_03.gjf
 Output=loop1_H_03.log
 Initial command:
 /work/home/ackgydj0bd/apprepo/gaussian/16b.01-none_v1.3/app/g16/l1.exe "/work/home/ackgydj0bd/apprepo/gaussian/16b.01-none_v1.3/app/g16/scratch/Gau-261621.inp" -scrdir="/work/home/ackgydj0bd/apprepo/gaussian/16b.01-none_v1.3/app/g16/scratch/"
 Entering Link 1 = /work/home/ackgydj0bd/apprepo/gaussian/16b.01-none_v1.3/app/g16/l1.exe PID=    261622.
  
 Copyright (c) 1988-2017, Gaussian, Inc.  All Rights Reserved.
  
 This is part of the Gaussian(R) 16 program.  It is based on
 the Gaussian(R) 09 system (copyright 2009, Gaussian, Inc.),
 the Gaussian(R) 03 system (copyright 2003, Gaussian, Inc.),
 the Gaussian(R) 98 system (copyright 1998, Gaussian, Inc.),
 the Gaussian(R) 94 system (copyright 1995, Gaussian, Inc.),
 the Gaussian 92(TM) system (copyright 1992, Gaussian, Inc.),
 the Gaussian 90(TM) system (copyright 1990, Gaussian, Inc.),
 the Gaussian 88(TM) system (copyright 1988, Gaussian, Inc.),
 the Gaussian 86(TM) system (copyright 1986, Carnegie Mellon
 University), and the Gaussian 82(TM) system (copyright 1983,
 Carnegie Mellon University). Gaussian is a federally registered
 trademark of Gaussian, Inc.
  
 This software contains proprietary and confidential information,
 including trade secrets, belonging to Gaussian, Inc.
  
 This software is provided under written license and may be
 used, copied, transmitted, or stored only in accord with that
 written license.
  
 The following legend is applicable only to US Government
 contracts under FAR:
  
                    RESTRICTED RIGHTS LEGEND
  
 Use, reproduction and disclosure by the US Government is
 subject to restrictions as set forth in subparagraphs (a)
 and (c) of the Commercial Computer Software - Restricted
 Rights clause in FAR 52.227-19.
  
 Gaussian, Inc.
 340 Quinnipiac St., Bldg. 40, Wallingford CT 06492
  
  
 ---------------------------------------------------------------
 Warning -- This program may not be used in any manner that
 competes with the business of Gaussian, Inc. or will provide
 assistance to any competitor of Gaussian, Inc.  The licensee
 of this program is prohibited from giving any competitor of
 Gaussian, Inc. access to this program.  By using this program,
 the user acknowledges that Gaussian, Inc. is engaged in the
 business of creating and licensing software in the field of
 computational chemistry and represents and warrants to the
 licensee that it is not a competitor of Gaussian, Inc. and that
 it will not use this program in any manner prohibited above.
 ---------------------------------------------------------------
  

 Cite this work as:
 Gaussian 16, Revision B.01,
 M. J. Frisch, G. W. Trucks, H. B. Schlegel, G. E. Scuseria, 
 M. A. Robb, J. R. Cheeseman, G. Scalmani, V. Barone, 
 G. A. Petersson, H. Nakatsuji, X. Li, M. Caricato, A. V. Marenich, 
 J. Bloino, B. G. Janesko, R. Gomperts, B. Mennucci, H. P. Hratchian, 
 J. V. Ortiz, A. F. Izmaylov, J. L. Sonnenberg, D. Williams-Young, 
 F. Ding, F. Lipparini, F. Egidi, J. Goings, B. Peng, A. Petrone, 
 T. Henderson, D. Ranasinghe, V. G. Zakrzewski, J. Gao, N. Rega, 
 G. Zheng, W. Liang, M. Hada, M. Ehara, K. Toyota, R. Fukuda, 
 J. Hasegawa, M. Ishida, T. Nakajima, Y. Honda, O. Kitao, H. Nakai, 
 T. Vreven, K. Throssell, J. A. Montgomery, Jr., J. E. Peralta, 
 F. Ogliaro, M. J. Bearpark, J. J. Heyd, E. N. Brothers, K. N. Kudin, 
 V. N. Staroverov, T. A. Keith, R. Kobayashi, J. Normand, 
 K. Raghavachari, A. P. Rendell, J. C. Burant, S. S. Iyengar, 
 J. Tomasi, M. Cossi, J. M. Millam, M. Klene, C. Adamo, R. Cammi, 
 J. W. Ochterski, R. L. Martin, K. Morokuma, O. Farkas, 
 J. B. Foresman, and D. J. Fox, Gaussian, Inc., Wallingford CT, 2016.
 
 ******************************************
 Gaussian 16:  EM64L-G16RevB.01 20-Dec-2017
                 9-Jul-2026 
 ******************************************
 %nproc=64
 Will use up to   64 processors via shared memory.
 -----------------------------------------
 #force b3lyp/3-21G* Geom=PrintInputOrient
 -----------------------------------------
 1/10=7,30=1,38=1/1,3;
 2/9=2000,12=2,17=6,18=5,40=1/2;
 3/5=5,7=1,11=2,25=1,30=1,71=1,74=-5/1,2,3;
 4//1;
 5/5=2,38=5/2;
 6/7=2,8=2,9=2,10=2,28=1/1;
 7/29=1/1,2,3,16;
 1/10=7,30=1/3;
 99//99;
 -------------------------------------------------
 Generated by MDDatasetMaker (Author: Jinzhe Zeng)
 -------------------------------------------------
 Symbolic Z-matrix:
 Charge =  0 Multiplicity = 4
 H                     27.6024   7.67039   5.44849 
 O                     28.63769   6.05256   3.99338 
 O                     27.9449   6.23685   5.49826 
 

 GradGradGradGradGradGradGradGradGradGradGradGradGradGradGradGradGradGrad
 Berny optimization.
 Initialization pass.
 Trust Radius=3.00D-01 FncErr=1.00D-07 GrdErr=1.00D-07 EigMax=2.50D+02 EigMin=1.00D-04
 Number of steps in this run=      2 maximum allowed number of steps=      2.
 GradGradGradGradGradGradGradGradGradGradGradGradGradGradGradGradGradGrad

                          Input orientation:                          
 ---------------------------------------------------------------------
 Center     Atomic      Atomic             Coordinates (Angstroms)
 Number     Number       Type             X           Y           Z
 ---------------------------------------------------------------------
      1          1           0       27.602400    7.670390    5.448490
      2          8           0       28.637690    6.052560    3.993380
      3          8           0       27.944900    6.236850    5.498260
 ---------------------------------------------------------------------
                    Distance matrix (angstroms):
                    1          2          3
     1  H    0.000000
     2  O    2.409677   0.000000
     3  O    1.474727   1.666909   0.000000
 Stoichiometry    HO2(4)
 Framework group  CS[SG(HO2)]
 Deg. of freedom     3
 Full point group                 CS      NOp   2
 Largest Abelian subgroup         CS      NOp   2
 Largest concise Abelian subgroup C1      NOp   1
                         Standard orientation:                         
 ---------------------------------------------------------------------
 Center     Atomic      Atomic             Coordinates (Angstroms)
 Number     Number       Type             X           Y           Z
 ---------------------------------------------------------------------
      1          1           0       -1.366922   -1.025279    0.000000
      2          8           0        0.085433    0.897534    0.000000
      3          8           0        0.085433   -0.769374    0.000000
 ---------------------------------------------------------------------
 Rotational constants (GHZ):         259.2465597          21.5122925          19.8639786
 Standard basis: 3-21G* (6D, 7F)
 There are    16 symmetry adapted cartesian basis functions of A'  symmetry.
 There are     4 symmetry adapted cartesian basis functions of A"  symmetry.
 There are    16 symmetry adapted basis functions of A'  symmetry.
 There are     4 symmetry adapted basis functions of A"  symmetry.
    20 basis functions,    33 primitive gaussians,    20 cartesian basis functions
    10 alpha electrons        7 beta electrons
       nuclear repulsion energy        24.9449392374 Hartrees.
 NAtoms=    3 NActive=    3 NUniq=    3 SFac= 1.00D+00 NAtFMM=   60 NAOKFM=F Big=F
 Integral buffers will be    131072 words long.
 Raffenetti 2 integral format.
 Two-electron integral symmetry is turned on.
 One-electron integrals computed using PRISM.
 PrsmSu:  requested number of processors reduced to:  31 ShMem   1 Linda.
 NBasis=    20 RedAO= T EigKep=  1.36D-01  NBF=    16     4
 NBsUse=    20 1.00D-06 EigRej= -1.00D+00 NBFU=    16     4
 ExpMin= 1.83D-01 ExpMax= 3.22D+02 ExpMxC= 3.22D+02 IAcc=3 IRadAn=         5 AccDes= 0.00D+00
 Harris functional with IExCor=  402 and IRadAn=       5 diagonalized for initial guess.
 HarFok:  IExCor=  402 AccDes= 0.00D+00 IRadAn=         5 IDoV= 1 UseB2=F ITyADJ=14
 ICtDFT=  3500011 ScaDFX=  1.000000  1.000000  1.000000  1.000000
 FoFCou: FMM=F IPFlag=           0 FMFlag=      100000 FMFlg1=           0
         NFxFlg=           0 DoJE=T BraDBF=F KetDBF=T FulRan=T
         wScrn=  0.000000 ICntrl=       500 IOpCl=  0 I1Cent=   200000004 NGrid=           0
         NMat0=    1 NMatS0=      1 NMatT0=    0 NMatD0=    1 NMtDS0=    0 NMtDT0=    0
 Petite list used in FoFCou.
 Initial guess orbital symmetries:
 Alpha Orbitals:
       Occupied  (A') (A') (A') (A') (A') (A') (A") (A') (A") (A')
       Virtual   (A') (A') (A") (A') (A') (A") (A') (A') (A') (A')
 Beta  Orbitals:
       Occupied  (A') (A') (A') (A') (A') (A') (A")
       Virtual   (A') (A") (A') (A') (A') (A") (A') (A') (A") (A')
                 (A') (A') (A')
 The electronic state of the initial guess is 4-A".
 Initial guess <Sx>= 0.0000 <Sy>= 0.0000 <Sz>= 1.5000 <S**2>= 3.7500 S= 1.5000
 Keep R1 and R2 ints in memory in symmetry-blocked form, NReq=55259075.
 Requested convergence on RMS density matrix=1.00D-08 within 128 cycles.
 Requested convergence on MAX density matrix=1.00D-06.
 Requested convergence on             energy=1.00D-06.
 No special actions if energy rises.
 Integral accuracy reduced to 1.0D-05 until final iterations.
 Initial convergence to 1.0D-05 achieved.  Increase integral accuracy.
 SCF Done:  E(UB3LYP) =  -149.915362878     A.U. after   25 cycles
            NFock= 25  Conv=0.15D-08     -V/T= 2.0084
 <Sx>= 0.0000 <Sy>= 0.0000 <Sz>= 1.5000 <S**2>= 3.7588 S= 1.5022
 <L.S>= 0.000000000000E+00
 Annihilation of the first spin contaminant:
 S**2 before annihilation     3.7588,   after     3.7500

 **********************************************************************

            Population analysis using the SCF Density.

 **********************************************************************

 Orbital symmetries:
 Alpha Orbitals:
       Occupied  (A') (A') (A') (A') (A') (A') (A") (A') (A") (A')
       Virtual   (A') (A') (A") (A') (A") (A') (A') (A') (A') (A')
 Beta  Orbitals:
       Occupied  (A') (A') (A') (A') (A') (A') (A")
       Virtual   (A") (A') (A') (A') (A') (A") (A') (A') (A") (A')
                 (A') (A') (A')
 The electronic state is 4-A".
 Alpha  occ. eigenvalues --  -19.13858 -19.11710  -1.03830  -0.89438  -0.45837
 Alpha  occ. eigenvalues --   -0.44034  -0.40648  -0.36728  -0.32233  -0.20267
 Alpha virt. eigenvalues --   -0.07510   0.84459   1.27449   1.29151   1.46538
 Alpha virt. eigenvalues --    1.46641   1.49365   1.56228   2.11805   2.70515
  Beta  occ. eigenvalues --  -19.08916 -19.08764  -0.92890  -0.77470  -0.38730
  Beta  occ. eigenvalues --   -0.33322  -0.27960
  Beta virt. eigenvalues --   -0.12908  -0.12674  -0.04803   0.01213   0.85974
  Beta virt. eigenvalues --    1.35703   1.40018   1.53632   1.54436   1.57426
  Beta virt. eigenvalues --    1.61352   2.20365   2.78742
          Condensed to atoms (all electrons):
               1          2          3
     1  H    0.700172   0.017961   0.127665
     2  O    0.017961   8.025263  -0.045234
     3  O    0.127665  -0.045234   8.073780
          Atomic-Atomic Spin Densities.
               1          2          3
     1  H    0.093684   0.010121  -0.039555
     2  O    0.010121   2.199847  -0.286946
     3  O   -0.039555  -0.286946   1.339228
 Mulliken charges and spin densities:
               1          2
     1  H    0.154202   0.064250
     2  O    0.002010   1.923023
     3  O   -0.156212   1.012727
 Sum of Mulliken charges =   0.00000   3.00000
 Mulliken charges and spin densities with hydrogens summed into heavy atoms:
               1          2
     2  O    0.002010   1.923023
     3  O   -0.002010   1.076977
 Electronic spatial extent (au):  <R**2>=             73.3900
 Charge=              0.0000 electrons
 Dipole moment (field-independent basis, Debye):
    X=             -1.2813    Y=             -0.2351    Z=              0.0000  Tot=              1.3027
 Quadrupole moment (field-independent basis, Debye-Ang):
   XX=             -8.4051   YY=            -11.1323   ZZ=            -10.8900
   XY=              1.3929   XZ=              0.0000   YZ=              0.0000
 Traceless Quadrupole moment (field-independent basis, Debye-Ang):
   XX=              1.7373   YY=             -0.9898   ZZ=             -0.7475
   XY=              1.3929   XZ=              0.0000   YZ=              0.0000
 Octapole moment (field-independent basis, Debye-Ang**2):
  XXX=             -1.3461  YYY=              0.7312  ZZZ=              0.0000  XYY=             -1.2315
  XXY=             -1.1309  XXZ=              0.0000  XZZ=              0.4526  YZZ=              0.4931
  YYZ=              0.0000  XYZ=              0.0000
 Hexadecapole moment (field-independent basis, Debye-Ang**3):
 XXXX=            -12.2847 YYYY=            -54.5797 ZZZZ=             -6.6633 XXXY=             -0.9652
 XXXZ=              0.0000 YYYX=             -2.6080 YYYZ=              0.0000 ZZZX=              0.0000
 ZZZY=              0.0000 XXYY=             -9.4797 XXZZ=             -3.8984 YYZZ=            -10.1947
 XXYZ=              0.0000 YYXZ=              0.0000 ZZXY=             -1.3563
 N-N= 2.494493923742D+01 E-N=-4.051195522045D+02  KE= 1.486609033205D+02
 Symmetry A'   KE= 1.413099255764D+02
 Symmetry A"   KE= 7.350977744041D+00
 Symmetry A'   SP= 2.000000000000D+00
 Symmetry A"   SP= 1.000000000000D+00
                          Isotropic Fermi Contact Couplings
        Atom                 a.u.       MegaHertz       Gauss      10(-4) cm-1
     1  H(1)               0.01711      25.48819       9.09482       8.50194
     2  O(17)              0.32099     -64.86180     -23.14430     -21.63557
     3  O(17)              0.43630     -88.16149     -31.45821     -29.40751
 --------------------------------------------------------
       Center         ----  Spin Dipole Couplings  ----
                      3XX-RR        3YY-RR        3ZZ-RR
 --------------------------------------------------------
     1   Atom        0.073780     -0.016908     -0.056872
     2   Atom        1.310377     -0.580293     -0.730084
     3   Atom       -1.332077      0.509979      0.822099
 --------------------------------------------------------
                        XY            XZ            YZ
 --------------------------------------------------------
     1   Atom        0.046507      0.000000      0.000000
     2   Atom       -0.149974      0.000000      0.000000
     3   Atom       -1.182257      0.000000      0.000000
 --------------------------------------------------------


 ---------------------------------------------------------------------------------
              Anisotropic Spin Dipole Couplings in Principal Axis System
 ---------------------------------------------------------------------------------

       Atom             a.u.   MegaHertz   Gauss  10(-4) cm-1        Axes

              Baa    -0.0569   -30.344   -10.828   -10.122  0.0000  0.0000  1.0000
     1 H(1)   Bbb    -0.0365   -19.484    -6.952    -6.499 -0.3885  0.9214  0.0000
              Bcc     0.0934    49.828    17.780    16.621  0.9214  0.3885  0.0000
 
              Baa    -0.7301    52.828    18.850    17.622  0.0000  0.0000  1.0000
     2 O(17)  Bbb    -0.5921    42.845    15.288    14.292  0.0786  0.9969  0.0000
              Bcc     1.3222   -95.673   -34.139   -31.913  0.9969 -0.0786  0.0000
 
              Baa    -1.9097   138.186    49.308    46.094  0.8985  0.4390  0.0000
     3 O(17)  Bbb     0.8221   -59.486   -21.226   -19.843  0.0000  0.0000  1.0000
              Bcc     1.0876   -78.700   -28.082   -26.251 -0.4390  0.8985  0.0000
 

 ---------------------------------------------------------------------------------

 PrsmSu:  requested number of processors reduced to:  31 ShMem   1 Linda.
 Calling FoFJK, ICntrl=      2127 FMM=F ISym2X=1 I1Cent= 0 IOpClX= 1 NMat=1 NMatS=1 NMatT=0.
 ***** Axes restored to original set *****
 -------------------------------------------------------------------
 Center     Atomic                   Forces (Hartrees/Bohr)
 Number     Number              X              Y              Z
 -------------------------------------------------------------------
      1        1           0.017726501   -0.085384743    0.009192391
      2        8           0.019072353   -0.010607064   -0.038157114
      3        8          -0.036798854    0.095991807    0.028964723
 -------------------------------------------------------------------
 Cartesian Forces:  Max     0.095991807 RMS     0.048337989

 GradGradGradGradGradGradGradGradGradGradGradGradGradGradGradGradGradGrad
 Berny optimization.
 Search for a local minimum.
 Step number   1 out of a maximum of    2
 All quantities printed in internal units (Hartrees-Bohrs-Radians)
 Second derivative matrix not updated -- first step.
 The second derivative matrix:
                          X1        Y1        Z1        X2        Y2
           X1           1.00000
           Y1           0.00000   1.00000
           Z1           0.00000   0.00000   1.00000
           X2           0.00000   0.00000   0.00000   0.86128
           Y2           0.00000   0.00000   0.00000   0.03690   0.99018
           Z2           0.00000   0.00000   0.00000   0.30133  -0.08016
           X3           0.00000   0.00000   0.00000  -0.03401   0.00905
           Y3           0.00000   0.00000   0.00000   0.00905  -0.00241
           Z3           0.00000   0.00000   0.00000   0.07389  -0.01965
                          Z2        X3        Y3        Z3
           Z2           0.34546
           X3           0.07389   0.86128
           Y3          -0.01965   0.03690   0.99018
           Z3          -0.16050   0.30133  -0.08016   0.34546
 ITU=  0
     Eigenvalues ---    0.39384   0.94939   1.00000
 Angle between quadratic step and forces=  33.31 degrees.
 ClnCor:  largest displacement from symmetrization is 2.39D-16 for atom     1.
 Linear search not attempted -- first point.
 ClnCor:  largest displacement from symmetrization is 7.32D-15 for atom     1.
 B after Tr=    -0.023918    0.114450   -0.011954
         Rot=    0.999993    0.003456    0.000877    0.001483 Ang=   0.44 deg.
 Variable       Old X    -DE/DX   Delta X   Delta X   Delta X     New X
                                 (Linear)    (Quad)   (Total)
    X1       52.16098   0.01773   0.00000   0.01551   0.01607  52.17705
    Y1       14.49494  -0.08538   0.00000  -0.10294  -0.07202  14.42292
    Z1       10.29615   0.00919   0.00000   0.02472   0.00514  10.30130
    X2       54.11739   0.01907   0.00000   0.05194   0.04867  54.16607
    Y2       11.43768  -0.01061   0.00000  -0.02046  -0.01529  11.42239
    Z2        7.54639  -0.03816   0.00000  -0.10890  -0.10434   7.44205
    X3       52.80821  -0.03680   0.00000  -0.05743  -0.06475  52.74346
    Y3       11.78594   0.09599   0.00000   0.05685   0.08731  11.87325
    Z3       10.39021   0.02896   0.00000   0.10016   0.09920  10.48941
         Item               Value     Threshold  Converged?
 Maximum Force            0.095992     0.000450     NO 
 RMS     Force            0.048338     0.000300     NO 
 Maximum Displacement     0.104343     0.001800     NO 
 RMS     Displacement     0.067181     0.001200     NO 
 Predicted change in Energy=-1.379905D-02
 GradGradGradGradGradGradGradGradGradGradGradGradGradGradGradGradGradGrad

 1\1\GINC-H08R06\Force\UB3LYP\3-21G*\H1O2(4)\ACKGYDJ0BD\09-Jul-2026\0\\
 #force b3lyp/3-21G* Geom=PrintInputOrient\\Generated by MDDatasetMaker
  (Author: Jinzhe Zeng)\\0,4\H,27.6024,7.67039,5.44849\O,28.63769,6.052
 56,3.99338\O,27.9449,6.23685,5.49826\\Version=EM64L-G16RevB.01\State=4
 -A"\HF=-149.9153629\S2=3.758848\S2-1=0.\S2A=3.75002\RMSD=1.489e-09\RMS
 F=4.834e-02\Dipole=-0.120405,0.4979827,-0.0139639\Quadrupole=-0.398061
 4,1.3931134,-0.995052,-0.7174002,0.0568903,0.5188672\PG=CS [SG(H1O2)]\
 \@


 My opinions may have changed, but not the fact that I am right.
                       -- Ashleigh Brilliant
 Job cpu time:       0 days  0 hours  2 minutes 44.4 seconds.
 Elapsed time:       0 days  0 hours  0 minutes  3.4 seconds.
 File lengths (MBytes):  RWF=      6 Int=      0 D2E=      0 Chk=      1 Scr=      1
 Normal termination of Gaussian 16 at Thu Jul  9 10:27:50 2026.
