 Entering Gaussian System, Link 0=g16
 Input=loop1_O11_08.gjf
 Output=loop1_O11_08.log
 Initial command:
 /work/home/ackgydj0bd/apprepo/gaussian/16b.01-none_v1.3/app/g16/l1.exe "/work/home/ackgydj0bd/apprepo/gaussian/16b.01-none_v1.3/app/g16/scratch/Gau-42079.inp" -scrdir="/work/home/ackgydj0bd/apprepo/gaussian/16b.01-none_v1.3/app/g16/scratch/"
 Entering Link 1 = /work/home/ackgydj0bd/apprepo/gaussian/16b.01-none_v1.3/app/g16/l1.exe PID=     42080.
  
 Copyright (c) 1988-2017, Gaussian, Inc.  All Rights Reserved.
  
 This is part of the Gaussian(R) 16 program.  It is based on
 the Gaussian(R) 09 system (copyright 2009, Gaussian, Inc.),
 the Gaussian(R) 03 system (copyright 2003, Gaussian, Inc.),
 the Gaussian(R) 98 system (copyright 1998, Gaussian, Inc.),
 the Gaussian(R) 94 system (copyright 1995, Gaussian, Inc.),
 the Gaussian 92(TM) system (copyright 1992, Gaussian, Inc.),
 the Gaussian 90(TM) system (copyright 1990, Gaussian, Inc.),
 the Gaussian 88(TM) system (copyright 1988, Gaussian, Inc.),
 the Gaussian 86(TM) system (copyright 1986, Carnegie Mellon
 University), and the Gaussian 82(TM) system (copyright 1983,
 Carnegie Mellon University). Gaussian is a federally registered
 trademark of Gaussian, Inc.
  
 This software contains proprietary and confidential information,
 including trade secrets, belonging to Gaussian, Inc.
  
 This software is provided under written license and may be
 used, copied, transmitted, or stored only in accord with that
 written license.
  
 The following legend is applicable only to US Government
 contracts under FAR:
  
                    RESTRICTED RIGHTS LEGEND
  
 Use, reproduction and disclosure by the US Government is
 subject to restrictions as set forth in subparagraphs (a)
 and (c) of the Commercial Computer Software - Restricted
 Rights clause in FAR 52.227-19.
  
 Gaussian, Inc.
 340 Quinnipiac St., Bldg. 40, Wallingford CT 06492
  
  
 ---------------------------------------------------------------
 Warning -- This program may not be used in any manner that
 competes with the business of Gaussian, Inc. or will provide
 assistance to any competitor of Gaussian, Inc.  The licensee
 of this program is prohibited from giving any competitor of
 Gaussian, Inc. access to this program.  By using this program,
 the user acknowledges that Gaussian, Inc. is engaged in the
 business of creating and licensing software in the field of
 computational chemistry and represents and warrants to the
 licensee that it is not a competitor of Gaussian, Inc. and that
 it will not use this program in any manner prohibited above.
 ---------------------------------------------------------------
  

 Cite this work as:
 Gaussian 16, Revision B.01,
 M. J. Frisch, G. W. Trucks, H. B. Schlegel, G. E. Scuseria, 
 M. A. Robb, J. R. Cheeseman, G. Scalmani, V. Barone, 
 G. A. Petersson, H. Nakatsuji, X. Li, M. Caricato, A. V. Marenich, 
 J. Bloino, B. G. Janesko, R. Gomperts, B. Mennucci, H. P. Hratchian, 
 J. V. Ortiz, A. F. Izmaylov, J. L. Sonnenberg, D. Williams-Young, 
 F. Ding, F. Lipparini, F. Egidi, J. Goings, B. Peng, A. Petrone, 
 T. Henderson, D. Ranasinghe, V. G. Zakrzewski, J. Gao, N. Rega, 
 G. Zheng, W. Liang, M. Hada, M. Ehara, K. Toyota, R. Fukuda, 
 J. Hasegawa, M. Ishida, T. Nakajima, Y. Honda, O. Kitao, H. Nakai, 
 T. Vreven, K. Throssell, J. A. Montgomery, Jr., J. E. Peralta, 
 F. Ogliaro, M. J. Bearpark, J. J. Heyd, E. N. Brothers, K. N. Kudin, 
 V. N. Staroverov, T. A. Keith, R. Kobayashi, J. Normand, 
 K. Raghavachari, A. P. Rendell, J. C. Burant, S. S. Iyengar, 
 J. Tomasi, M. Cossi, J. M. Millam, M. Klene, C. Adamo, R. Cammi, 
 J. W. Ochterski, R. L. Martin, K. Morokuma, O. Farkas, 
 J. B. Foresman, and D. J. Fox, Gaussian, Inc., Wallingford CT, 2016.
 
 ******************************************
 Gaussian 16:  EM64L-G16RevB.01 20-Dec-2017
                 9-Jul-2026 
 ******************************************
 %nproc=64
 Will use up to   64 processors via shared memory.
 -----------------------------------------
 #force b3lyp/3-21G* Geom=PrintInputOrient
 -----------------------------------------
 1/10=7,30=1,38=1/1,3;
 2/9=2000,12=2,17=6,18=5,40=1/2;
 3/5=5,7=1,11=2,25=1,30=1,71=1,74=-5/1,2,3;
 4//1;
 5/5=2,38=5/2;
 6/7=2,8=2,9=2,10=2,28=1/1;
 7/29=1/1,2,3,16;
 1/10=7,30=1/3;
 99//99;
 -------------------------------------------------
 Generated by MDDatasetMaker (Author: Jinzhe Zeng)
 -------------------------------------------------
 Symbolic Z-matrix:
 Charge =  0 Multiplicity = 1
 C                     20.0835   6.91034   12.693 
 O                     20.5694   8.12651   13.3045 
 O                     19.3056   7.9385    14.3119 
 

 GradGradGradGradGradGradGradGradGradGradGradGradGradGradGradGradGradGrad
 Berny optimization.
 Initialization pass.
 Trust Radius=3.00D-01 FncErr=1.00D-07 GrdErr=1.00D-07 EigMax=2.50D+02 EigMin=1.00D-04
 Number of steps in this run=      2 maximum allowed number of steps=      2.
 GradGradGradGradGradGradGradGradGradGradGradGradGradGradGradGradGradGrad

                          Input orientation:                          
 ---------------------------------------------------------------------
 Center     Atomic      Atomic             Coordinates (Angstroms)
 Number     Number       Type             X           Y           Z
 ---------------------------------------------------------------------
      1          6           0       20.083500    6.910340   12.693000
      2          8           0       20.569400    8.126510   13.304500
      3          8           0       19.305600    7.938500   14.311900
 ---------------------------------------------------------------------
                    Distance matrix (angstroms):
                    1          2          3
     1  C    0.000000
     2  O    1.445372   0.000000
     3  O    2.069560   1.627081   0.000000
 Stoichiometry    CO2
 Framework group  CS[SG(CO2)]
 Deg. of freedom     3
 Full point group                 CS      NOp   2
 Largest Abelian subgroup         CS      NOp   2
 Largest concise Abelian subgroup C1      NOp   1
                         Standard orientation:                         
 ---------------------------------------------------------------------
 Center     Atomic      Atomic             Coordinates (Angstroms)
 Number     Number       Type             X           Y           Z
 ---------------------------------------------------------------------
      1          6           0        1.147309   -0.137175    0.000000
      2          8           0        0.000000    0.741905    0.000000
      3          8           0       -0.860482   -0.639024    0.000000
 ---------------------------------------------------------------------
 Rotational constants (GHZ):          40.6715536          16.4220668          11.6985219
 Standard basis: 3-21G* (6D, 7F)
 There are    21 symmetry adapted cartesian basis functions of A'  symmetry.
 There are     6 symmetry adapted cartesian basis functions of A"  symmetry.
 There are    21 symmetry adapted basis functions of A'  symmetry.
 There are     6 symmetry adapted basis functions of A"  symmetry.
    27 basis functions,    45 primitive gaussians,    27 cartesian basis functions
    11 alpha electrons       11 beta electrons
       nuclear repulsion energy        50.6618478853 Hartrees.
 NAtoms=    3 NActive=    3 NUniq=    3 SFac= 1.00D+00 NAtFMM=   60 NAOKFM=F Big=F
 Integral buffers will be    131072 words long.
 Raffenetti 2 integral format.
 Two-electron integral symmetry is turned on.
 One-electron integrals computed using PRISM.
 PrsmSu:  requested number of processors reduced to:  31 ShMem   1 Linda.
 NBasis=    27 RedAO= T EigKep=  7.45D-02  NBF=    21     6
 NBsUse=    27 1.00D-06 EigRej= -1.00D+00 NBFU=    21     6
 ExpMin= 1.96D-01 ExpMax= 3.22D+02 ExpMxC= 3.22D+02 IAcc=3 IRadAn=         5 AccDes= 0.00D+00
 Harris functional with IExCor=  402 and IRadAn=       5 diagonalized for initial guess.
 HarFok:  IExCor=  402 AccDes= 0.00D+00 IRadAn=         5 IDoV= 1 UseB2=F ITyADJ=14
 ICtDFT=  3500011 ScaDFX=  1.000000  1.000000  1.000000  1.000000
 FoFCou: FMM=F IPFlag=           0 FMFlag=      100000 FMFlg1=           0
         NFxFlg=           0 DoJE=T BraDBF=F KetDBF=T FulRan=T
         wScrn=  0.000000 ICntrl=       500 IOpCl=  0 I1Cent=   200000004 NGrid=           0
         NMat0=    1 NMatS0=      1 NMatT0=    0 NMatD0=    1 NMtDS0=    0 NMtDT0=    0
 Petite list used in FoFCou.
 Initial guess orbital symmetries:
       Occupied  (A') (A') (A') (A') (A') (A') (A') (A") (A') (A')
                 (A")
       Virtual   (A') (A") (A') (A') (A') (A") (A') (A') (A") (A')
                 (A") (A') (A') (A') (A') (A')
 The electronic state of the initial guess is 1-A'.
 Keep R1 ints in memory in symmetry-blocked form, NReq=55332308.
 Requested convergence on RMS density matrix=1.00D-08 within 128 cycles.
 Requested convergence on MAX density matrix=1.00D-06.
 Requested convergence on             energy=1.00D-06.
 No special actions if energy rises.
 Integral accuracy reduced to 1.0D-05 until final iterations.
 EnCoef did     2 forward-backward iterations
 Initial convergence to 1.0D-05 achieved.  Increase integral accuracy.
 SCF Done:  E(RB3LYP) =  -187.236324925     A.U. after   16 cycles
            NFock= 16  Conv=0.57D-08     -V/T= 2.0116

 **********************************************************************

            Population analysis using the SCF Density.

 **********************************************************************

 Orbital symmetries:
       Occupied  (A') (A') (A') (A') (A') (A') (A') (A") (A') (A')
                 (A")
       Virtual   (A") (A') (A') (A') (A') (A") (A') (A') (A") (A')
                 (A") (A') (A') (A') (A') (A')
 The electronic state is 1-A'.
 Alpha  occ. eigenvalues --  -19.20848 -19.11422 -10.34938  -1.12987  -0.88139
 Alpha  occ. eigenvalues --   -0.62000  -0.46729  -0.44705  -0.40799  -0.31590
 Alpha  occ. eigenvalues --   -0.28276
 Alpha virt. eigenvalues --   -0.14364  -0.13760  -0.07237   0.11013   0.63668
 Alpha virt. eigenvalues --    0.65472   0.69304   1.03335   1.32712   1.40657
 Alpha virt. eigenvalues --    1.48866   1.49558   1.54732   1.60874   2.43457
 Alpha virt. eigenvalues --    2.86906
          Condensed to atoms (all electrons):
               1          2          3
     1  C    5.390384   0.173887   0.069681
     2  O    0.173887   7.961350   0.084716
     3  O    0.069681   0.084716   7.991698
 Mulliken charges:
               1
     1  C    0.366049
     2  O   -0.219953
     3  O   -0.146096
 Sum of Mulliken charges =   0.00000
 Mulliken charges with hydrogens summed into heavy atoms:
               1
     1  C    0.366049
     2  O   -0.219953
     3  O   -0.146096
 Electronic spatial extent (au):  <R**2>=            112.8106
 Charge=              0.0000 electrons
 Dipole moment (field-independent basis, Debye):
    X=              1.3202    Y=              0.3623    Z=              0.0000  Tot=              1.3691
 Quadrupole moment (field-independent basis, Debye-Ang):
   XX=            -15.9806   YY=            -16.4320   ZZ=            -15.5509
   XY=              0.6244   XZ=              0.0000   YZ=              0.0000
 Traceless Quadrupole moment (field-independent basis, Debye-Ang):
   XX=              0.0073   YY=             -0.4442   ZZ=              0.4369
   XY=              0.6244   XZ=              0.0000   YZ=              0.0000
 Octapole moment (field-independent basis, Debye-Ang**2):
  XXX=             -8.4878  YYY=              0.5048  ZZZ=              0.0000  XYY=             -2.4951
  XXY=              1.1293  XXZ=              0.0000  XZZ=             -1.2970  YZZ=              0.6250
  YYZ=              0.0000  XYZ=              0.0000
 Hexadecapole moment (field-independent basis, Debye-Ang**3):
 XXXX=            -81.6191 YYYY=            -40.3222 ZZZZ=            -11.1129 XXXY=             -2.6805
 XXXZ=              0.0000 YYYX=             -3.7091 YYYZ=              0.0000 ZZZX=              0.0000
 ZZZY=              0.0000 XXYY=            -18.8261 XXZZ=            -14.8261 YYZZ=             -8.8777
 XXYZ=              0.0000 YYXZ=              0.0000 ZZXY=             -2.0314
 N-N= 5.066184788534D+01 E-N=-5.415972689542D+02  KE= 1.850966659325D+02
 Symmetry A'   KE= 1.758854034573D+02
 Symmetry A"   KE= 9.211262475164D+00
 PrsmSu:  requested number of processors reduced to:  31 ShMem   1 Linda.
 Calling FoFJK, ICntrl=      2127 FMM=F ISym2X=1 I1Cent= 0 IOpClX= 0 NMat=1 NMatS=1 NMatT=0.
 ***** Axes restored to original set *****
 -------------------------------------------------------------------
 Center     Atomic                   Forces (Hartrees/Bohr)
 Number     Number              X              Y              Z
 -------------------------------------------------------------------
      1        6           0.018305718    0.118574924    0.086567828
      2        8          -0.042266797   -0.094165223   -0.043041313
      3        8           0.023961079   -0.024409700   -0.043526515
 -------------------------------------------------------------------
 Cartesian Forces:  Max     0.118574924 RMS     0.064515072

 GradGradGradGradGradGradGradGradGradGradGradGradGradGradGradGradGradGrad
 Berny optimization.
 Search for a local minimum.
 Step number   1 out of a maximum of    2
 All quantities printed in internal units (Hartrees-Bohrs-Radians)
 Second derivative matrix not updated -- first step.
 The second derivative matrix:
                          X1        Y1        Z1        X2        Y2
           X1           0.39043
           Y1          -0.19796   0.56596
           Z1           0.39223  -0.19549   0.46570
           X2          -0.06850  -0.11105  -0.03347   0.53674
           Y2          -0.12935  -0.27601  -0.12109  -0.15357   0.58902
           Z2          -0.04945  -0.13806  -0.07471   0.29536  -0.21650
           X3           0.00584   0.00027  -0.00518  -0.14047  -0.02582
           Y3           0.01857   0.00086  -0.01646  -0.04412  -0.02220
           Z3           0.01080   0.00050  -0.00957   0.09169   0.00455
                          Z2        X3        Y3        Z3
           Z2           0.53716
           X3           0.10767   0.46240
           Y3           0.02151  -0.28319   0.31215
           Z3          -0.08103   0.25109  -0.33809   0.47202
 ITU=  0
     Eigenvalues ---    0.08068   0.45358   0.79343
 Quadratic step=9.398D-01 exceeds max=3.000D-01 adjusted using Lamda=-2.221D-01.
 Angle between NR and scaled steps=  22.03 degrees.
 Angle between quadratic step and forces=  31.90 degrees.
 ClnCor:  largest displacement from symmetrization is 1.12D-16 for atom     1.
 Linear search not attempted -- first point.
 ClnCor:  largest displacement from symmetrization is 3.97D-15 for atom     3.
 B after Tr=     0.021400   -0.014586   -0.032574
         Rot=    1.000000   -0.000243    0.000229   -0.000262 Ang=  -0.05 deg.
 Variable       Old X    -DE/DX   Delta X   Delta X   Delta X     New X
                                 (Linear)    (Quad)   (Total)
    X1       37.95231   0.01831   0.00000  -0.04821  -0.04483  37.90749
    Y1       13.05865   0.11857   0.00000   0.15974   0.15328  13.21193
    Z1       23.98629   0.08657   0.00000   0.18417   0.17539  24.16169
    X2       38.87053  -0.04227   0.00000  -0.00585  -0.00399  38.86654
    Y2       15.35688  -0.09417   0.00000  -0.05206  -0.05847  15.29841
    Z2       25.14186  -0.04304   0.00000  -0.04003  -0.04735  25.09451
    X3       36.48230   0.02396   0.00000   0.04760   0.04882  36.53112
    Y3       15.00159  -0.02441   0.00000  -0.08628  -0.09481  14.90678
    Z3       27.04557  -0.04353   0.00000  -0.11946  -0.12804  26.91753
         Item               Value     Threshold  Converged?
 Maximum Force            0.118575     0.000450     NO 
 RMS     Force            0.064515     0.000300     NO 
 Maximum Displacement     0.175395     0.001800     NO 
 RMS     Displacement     0.099839     0.001200     NO 
 Predicted change in Energy=-3.466497D-02
 GradGradGradGradGradGradGradGradGradGradGradGradGradGradGradGradGradGrad

 1\1\GINC-H08R06\Force\RB3LYP\3-21G*\C1O2\ACKGYDJ0BD\09-Jul-2026\0\\#fo
 rce b3lyp/3-21G* Geom=PrintInputOrient\\Generated by MDDatasetMaker (A
 uthor: Jinzhe Zeng)\\0,1\C,20.0835,6.91034,12.693\O,20.5694,8.12651,13
 .3045\O,19.3056,7.9385,14.3119\\Version=EM64L-G16RevB.01\State=1-A'\HF
 =-187.2363249\RMSD=5.686e-09\RMSF=6.452e-02\Dipole=0.2113886,-0.259137
 2,-0.4222355\Quadrupole=0.0356117,-0.3231501,0.2875384,-0.4356702,-0.1
 122951,-0.1619432\PG=CS [SG(C1O2)]\\@


 IF AT FIRST YOU DON'T SUCCEED, TRY, TRY AGAIN.
 THEN GIVE UP;
 THERE'S NO USE BEING A DAMN FOOL ABOUT IT.

                                 -- W. C. FIELDS
 Job cpu time:       0 days  0 hours  2 minutes 21.3 seconds.
 Elapsed time:       0 days  0 hours  0 minutes  2.9 seconds.
 File lengths (MBytes):  RWF=      6 Int=      0 D2E=      0 Chk=      1 Scr=      1
 Normal termination of Gaussian 16 at Thu Jul  9 10:30:31 2026.
