 Entering Gaussian System, Link 0=g16
 Input=loop1_H_05.gjf
 Output=loop1_H_05.log
 Initial command:
 /work/home/ackgydj0bd/apprepo/gaussian/16b.01-none_v1.3/app/g16/l1.exe "/work/home/ackgydj0bd/apprepo/gaussian/16b.01-none_v1.3/app/g16/scratch/Gau-1871.inp" -scrdir="/work/home/ackgydj0bd/apprepo/gaussian/16b.01-none_v1.3/app/g16/scratch/"
 Entering Link 1 = /work/home/ackgydj0bd/apprepo/gaussian/16b.01-none_v1.3/app/g16/l1.exe PID=      1872.
  
 Copyright (c) 1988-2017, Gaussian, Inc.  All Rights Reserved.
  
 This is part of the Gaussian(R) 16 program.  It is based on
 the Gaussian(R) 09 system (copyright 2009, Gaussian, Inc.),
 the Gaussian(R) 03 system (copyright 2003, Gaussian, Inc.),
 the Gaussian(R) 98 system (copyright 1998, Gaussian, Inc.),
 the Gaussian(R) 94 system (copyright 1995, Gaussian, Inc.),
 the Gaussian 92(TM) system (copyright 1992, Gaussian, Inc.),
 the Gaussian 90(TM) system (copyright 1990, Gaussian, Inc.),
 the Gaussian 88(TM) system (copyright 1988, Gaussian, Inc.),
 the Gaussian 86(TM) system (copyright 1986, Carnegie Mellon
 University), and the Gaussian 82(TM) system (copyright 1983,
 Carnegie Mellon University). Gaussian is a federally registered
 trademark of Gaussian, Inc.
  
 This software contains proprietary and confidential information,
 including trade secrets, belonging to Gaussian, Inc.
  
 This software is provided under written license and may be
 used, copied, transmitted, or stored only in accord with that
 written license.
  
 The following legend is applicable only to US Government
 contracts under FAR:
  
                    RESTRICTED RIGHTS LEGEND
  
 Use, reproduction and disclosure by the US Government is
 subject to restrictions as set forth in subparagraphs (a)
 and (c) of the Commercial Computer Software - Restricted
 Rights clause in FAR 52.227-19.
  
 Gaussian, Inc.
 340 Quinnipiac St., Bldg. 40, Wallingford CT 06492
  
  
 ---------------------------------------------------------------
 Warning -- This program may not be used in any manner that
 competes with the business of Gaussian, Inc. or will provide
 assistance to any competitor of Gaussian, Inc.  The licensee
 of this program is prohibited from giving any competitor of
 Gaussian, Inc. access to this program.  By using this program,
 the user acknowledges that Gaussian, Inc. is engaged in the
 business of creating and licensing software in the field of
 computational chemistry and represents and warrants to the
 licensee that it is not a competitor of Gaussian, Inc. and that
 it will not use this program in any manner prohibited above.
 ---------------------------------------------------------------
  

 Cite this work as:
 Gaussian 16, Revision B.01,
 M. J. Frisch, G. W. Trucks, H. B. Schlegel, G. E. Scuseria, 
 M. A. Robb, J. R. Cheeseman, G. Scalmani, V. Barone, 
 G. A. Petersson, H. Nakatsuji, X. Li, M. Caricato, A. V. Marenich, 
 J. Bloino, B. G. Janesko, R. Gomperts, B. Mennucci, H. P. Hratchian, 
 J. V. Ortiz, A. F. Izmaylov, J. L. Sonnenberg, D. Williams-Young, 
 F. Ding, F. Lipparini, F. Egidi, J. Goings, B. Peng, A. Petrone, 
 T. Henderson, D. Ranasinghe, V. G. Zakrzewski, J. Gao, N. Rega, 
 G. Zheng, W. Liang, M. Hada, M. Ehara, K. Toyota, R. Fukuda, 
 J. Hasegawa, M. Ishida, T. Nakajima, Y. Honda, O. Kitao, H. Nakai, 
 T. Vreven, K. Throssell, J. A. Montgomery, Jr., J. E. Peralta, 
 F. Ogliaro, M. J. Bearpark, J. J. Heyd, E. N. Brothers, K. N. Kudin, 
 V. N. Staroverov, T. A. Keith, R. Kobayashi, J. Normand, 
 K. Raghavachari, A. P. Rendell, J. C. Burant, S. S. Iyengar, 
 J. Tomasi, M. Cossi, J. M. Millam, M. Klene, C. Adamo, R. Cammi, 
 J. W. Ochterski, R. L. Martin, K. Morokuma, O. Farkas, 
 J. B. Foresman, and D. J. Fox, Gaussian, Inc., Wallingford CT, 2016.
 
 ******************************************
 Gaussian 16:  EM64L-G16RevB.01 20-Dec-2017
                 9-Jul-2026 
 ******************************************
 %nproc=64
 Will use up to   64 processors via shared memory.
 -----------------------------------------
 #force b3lyp/3-21G* Geom=PrintInputOrient
 -----------------------------------------
 1/10=7,30=1,38=1/1,3;
 2/9=2000,12=2,17=6,18=5,40=1/2;
 3/5=5,7=1,11=2,25=1,30=1,71=1,74=-5/1,2,3;
 4//1;
 5/5=2,38=5/2;
 6/7=2,8=2,9=2,10=2,28=1/1;
 7/29=1/1,2,3,16;
 1/10=7,30=1/3;
 99//99;
 -------------------------------------------------
 Generated by MDDatasetMaker (Author: Jinzhe Zeng)
 -------------------------------------------------
 Symbolic Z-matrix:
 Charge =  0 Multiplicity = 4
 H                     0.92682   22.7414   16.8348 
 H                     0.92704   23.8541   18.0312 
 H                    -0.7415    23.1367   14.8741 
 O                     0.34661   22.6941   15.2587 
 

 GradGradGradGradGradGradGradGradGradGradGradGradGradGradGradGradGradGrad
 Berny optimization.
 Initialization pass.
 Trust Radius=3.00D-01 FncErr=1.00D-07 GrdErr=1.00D-07 EigMax=2.50D+02 EigMin=1.00D-04
 Number of steps in this run=      2 maximum allowed number of steps=      2.
 GradGradGradGradGradGradGradGradGradGradGradGradGradGradGradGradGradGrad

                          Input orientation:                          
 ---------------------------------------------------------------------
 Center     Atomic      Atomic             Coordinates (Angstroms)
 Number     Number       Type             X           Y           Z
 ---------------------------------------------------------------------
      1          1           0        0.926820   22.741400   16.834800
      2          1           0        0.927040   23.854100   18.031200
      3          1           0       -0.741500   23.136700   14.874100
      4          8           0        0.346610   22.694100   15.258700
 ---------------------------------------------------------------------
                    Distance matrix (angstroms):
                    1          2          3          4
     1  H    0.000000
     2  H    1.633853   0.000000
     3  H    2.604592   3.642248   0.000000
     4  O    1.680170   3.060924   1.236040   0.000000
 Stoichiometry    H3O(4)
 Framework group  C1[X(H3O)]
 Deg. of freedom     6
 Full point group                 C1      NOp   1
 Largest Abelian subgroup         C1      NOp   1
 Largest concise Abelian subgroup C1      NOp   1
                         Standard orientation:                         
 ---------------------------------------------------------------------
 Center     Atomic      Atomic             Coordinates (Angstroms)
 Number     Number       Type             X           Y           Z
 ---------------------------------------------------------------------
      1          1           0        1.265085   -0.404741    0.230954
      2          1           0        2.644546    0.404188   -0.104002
      3          1           0       -0.948125    0.963178    0.110971
      4          8           0       -0.370188   -0.120328   -0.029740
 ---------------------------------------------------------------------
 Rotational constants (GHZ):         329.8487077          44.3383070          39.6231415
 Standard basis: 3-21G* (6D, 7F)
 There are    15 symmetry adapted cartesian basis functions of A   symmetry.
 There are    15 symmetry adapted basis functions of A   symmetry.
    15 basis functions,    24 primitive gaussians,    15 cartesian basis functions
     7 alpha electrons        4 beta electrons
       nuclear repulsion energy         8.0000148667 Hartrees.
 NAtoms=    4 NActive=    4 NUniq=    4 SFac= 1.00D+00 NAtFMM=   60 NAOKFM=F Big=F
 Integral buffers will be    131072 words long.
 Raffenetti 2 integral format.
 Two-electron integral symmetry is turned on.
 One-electron integrals computed using PRISM.
 PrsmSu:  requested number of processors reduced to:  31 ShMem   1 Linda.
 NBasis=    15 RedAO= T EigKep=  1.61D-01  NBF=    15
 NBsUse=    15 1.00D-06 EigRej= -1.00D+00 NBFU=    15
 ExpMin= 1.83D-01 ExpMax= 3.22D+02 ExpMxC= 3.22D+02 IAcc=3 IRadAn=         5 AccDes= 0.00D+00
 Harris functional with IExCor=  402 and IRadAn=       5 diagonalized for initial guess.
 HarFok:  IExCor=  402 AccDes= 0.00D+00 IRadAn=         5 IDoV= 1 UseB2=F ITyADJ=14
 ICtDFT=  3500011 ScaDFX=  1.000000  1.000000  1.000000  1.000000
 FoFCou: FMM=F IPFlag=           0 FMFlag=      100000 FMFlg1=           0
         NFxFlg=           0 DoJE=T BraDBF=F KetDBF=T FulRan=T
         wScrn=  0.000000 ICntrl=       500 IOpCl=  0 I1Cent=   200000004 NGrid=           0
         NMat0=    1 NMatS0=      1 NMatT0=    0 NMatD0=    1 NMtDS0=    0 NMtDT0=    0
 Petite list used in FoFCou.
 Initial guess <Sx>= 0.0000 <Sy>= 0.0000 <Sz>= 1.5000 <S**2>= 3.7500 S= 1.5000
 Keep R1 and R2 ints in memory in canonical form, NReq=55229864.
 Requested convergence on RMS density matrix=1.00D-08 within 128 cycles.
 Requested convergence on MAX density matrix=1.00D-06.
 Requested convergence on             energy=1.00D-06.
 No special actions if energy rises.
 Integral accuracy reduced to 1.0D-05 until final iterations.
 Initial convergence to 1.0D-05 achieved.  Increase integral accuracy.
 SCF Done:  E(UB3LYP) =  -76.2513362583     A.U. after   18 cycles
            NFock= 18  Conv=0.43D-08     -V/T= 2.0080
 <Sx>= 0.0000 <Sy>= 0.0000 <Sz>= 1.5000 <S**2>= 3.7535 S= 1.5009
 <L.S>= 0.000000000000E+00
 Annihilation of the first spin contaminant:
 S**2 before annihilation     3.7535,   after     3.7500

 **********************************************************************

            Population analysis using the SCF Density.

 **********************************************************************

 Orbital symmetries:
 Alpha Orbitals:
       Occupied  (A) (A) (A) (A) (A) (A) (A)
       Virtual   (A) (A) (A) (A) (A) (A) (A) (A)
 Beta  Orbitals:
       Occupied  (A) (A) (A) (A)
       Virtual   (A) (A) (A) (A) (A) (A) (A) (A) (A) (A) (A)
 The electronic state is 4-A.
 Alpha  occ. eigenvalues --  -19.14137  -0.98875  -0.46276  -0.41391  -0.38239
 Alpha  occ. eigenvalues --   -0.31806  -0.14857
 Alpha virt. eigenvalues --   -0.00729   0.81251   0.89702   0.97557   1.30812
 Alpha virt. eigenvalues --    1.39358   1.57883   2.36997
  Beta  occ. eigenvalues --  -19.11075  -0.89764  -0.42222  -0.31196
  Beta virt. eigenvalues --   -0.14858  -0.10420   0.00560   0.08782   0.83077
  Beta virt. eigenvalues --    1.08709   1.09765   1.43112   1.43351   1.60785
  Beta virt. eigenvalues --    2.43919
          Condensed to atoms (all electrons):
               1          2          3          4
     1  H    1.184180  -0.102241   0.024420  -0.022565
     2  H   -0.102241   1.099971  -0.001466   0.002366
     3  H    0.024420  -0.001466   0.653419   0.110188
     4  O   -0.022565   0.002366   0.110188   8.041026
          Atomic-Atomic Spin Densities.
               1          2          3          4
     1  H    0.988360  -0.113500   0.029061  -0.149077
     2  H   -0.113500   1.091113  -0.001584   0.000795
     3  H    0.029061  -0.001584   0.159287  -0.085168
     4  O   -0.149077   0.000795  -0.085168   1.400184
 Mulliken charges and spin densities:
               1          2
     1  H   -0.083794   0.754844
     2  H    0.001370   0.976825
     3  H    0.213439   0.101597
     4  O   -0.131015   1.166734
 Sum of Mulliken charges =   0.00000   3.00000
 Mulliken charges and spin densities with hydrogens summed into heavy atoms:
               1          2
     4  O    0.000000   3.000000
 Electronic spatial extent (au):  <R**2>=             61.0651
 Charge=              0.0000 electrons
 Dipole moment (field-independent basis, Debye):
    X=             -1.2020    Y=              1.3343    Z=              0.0672  Tot=              1.7971
 Quadrupole moment (field-independent basis, Debye-Ang):
   XX=             -8.7606   YY=             -7.6174   ZZ=             -7.9088
   XY=             -1.2199   XZ=             -0.3322   YZ=              0.0454
 Traceless Quadrupole moment (field-independent basis, Debye-Ang):
   XX=             -0.6650   YY=              0.4782   ZZ=              0.1867
   XY=             -1.2199   XZ=             -0.3322   YZ=              0.0454
 Octapole moment (field-independent basis, Debye-Ang**2):
  XXX=            -10.4524  YYY=              0.6838  ZZZ=             -0.4400  XYY=             -3.5254
  XXY=              0.3102  XXZ=              0.3348  XZZ=             -2.4554  YZZ=             -0.1547
  YYZ=              0.0047  XYZ=              0.1225
 Hexadecapole moment (field-independent basis, Debye-Ang**3):
 XXXX=            -88.4757 YYYY=            -12.7757 ZZZZ=             -6.3393 XXXY=             -4.1446
 XXXZ=              0.6127 YYYX=             -1.6180 YYYZ=              0.3512 ZZZX=             -0.0786
 ZZZY=              0.2094 XXYY=            -15.2027 XXZZ=            -14.1923 YYZZ=             -3.3693
 XXYZ=              0.4053 YYXZ=             -0.1978 ZZXY=             -0.1502
 N-N= 8.000014866690D+00 E-N=-1.960645844098D+02  KE= 7.564772226962D+01
                          Isotropic Fermi Contact Couplings
        Atom                 a.u.       MegaHertz       Gauss      10(-4) cm-1
     1  H(1)               0.21160     315.27367     112.49749     105.16398
     2  H(1)               0.25762     383.84442     136.96524     128.03672
     3  H(1)               0.01890      28.15452      10.04623       9.39134
     4  O(17)              0.51890    -104.85256     -37.41400     -34.97505
 --------------------------------------------------------
       Center         ----  Spin Dipole Couplings  ----
                      3XX-RR        3YY-RR        3ZZ-RR
 --------------------------------------------------------
     1   Atom        0.056969     -0.023730     -0.033239
     2   Atom        0.031612     -0.009695     -0.021917
     3   Atom       -0.016958      0.073102     -0.056144
     4   Atom       -1.285270     -1.460657      2.745927
 --------------------------------------------------------
                        XY            XZ            YZ
 --------------------------------------------------------
     1   Atom        0.023719     -0.005549     -0.009258
     2   Atom        0.026645     -0.010233     -0.006102
     3   Atom       -0.086458     -0.013741      0.013591
     4   Atom        0.651321     -0.661464     -0.898816
 --------------------------------------------------------


 ---------------------------------------------------------------------------------
              Anisotropic Spin Dipole Couplings in Principal Axis System
 ---------------------------------------------------------------------------------

       Atom             a.u.   MegaHertz   Gauss  10(-4) cm-1        Axes

              Baa    -0.0397   -21.182    -7.558    -7.066 -0.1048  0.6106  0.7850
     1 H(1)   Bbb    -0.0244   -12.992    -4.636    -4.334 -0.2593  0.7452 -0.6143
              Bcc     0.0641    34.174    12.194    11.399  0.9601  0.2679 -0.0803
 
              Baa    -0.0245   -13.072    -4.665    -4.360 -0.0793  0.4984  0.8633
     2 H(1)   Bbb    -0.0222   -11.858    -4.231    -3.955 -0.4612  0.7494 -0.4750
              Bcc     0.0467    24.930     8.896     8.316  0.8838  0.4358 -0.1705
 
              Baa    -0.0711   -37.929   -13.534   -12.652  0.8214  0.4608  0.3361
     3 H(1)   Bbb    -0.0564   -30.082   -10.734   -10.034 -0.2386 -0.2576  0.9363
              Bcc     0.1275    68.011    24.268    22.686 -0.5181  0.8493  0.1016
 
              Baa    -2.0451   147.981    52.803    49.361 -0.6181  0.7837  0.0617
     4 O(17)  Bbb    -1.0258    74.224    26.485    24.759  0.7657  0.5824  0.2731
              Bcc     3.0709  -222.205   -79.288   -74.120 -0.1781 -0.2160  0.9600
 

 ---------------------------------------------------------------------------------

 PrsmSu:  requested number of processors reduced to:  31 ShMem   1 Linda.
 Calling FoFJK, ICntrl=      2127 FMM=F ISym2X=0 I1Cent= 0 IOpClX= 1 NMat=1 NMatS=1 NMatT=0.
 ***** Axes restored to original set *****
 -------------------------------------------------------------------
 Center     Atomic                   Forces (Hartrees/Bohr)
 Number     Number              X              Y              Z
 -------------------------------------------------------------------
      1        1           0.002805423   -0.022989248   -0.020149774
      2        1          -0.000578872    0.021589405    0.021898543
      3        1           0.052813675   -0.021729143    0.017015018
      4        8          -0.055040226    0.023128986   -0.018763787
 -------------------------------------------------------------------
 Cartesian Forces:  Max     0.055040226 RMS     0.027922183

 GradGradGradGradGradGradGradGradGradGradGradGradGradGradGradGradGradGrad
 Berny optimization.
 Search for a local minimum.
 Step number   1 out of a maximum of    2
 All quantities printed in internal units (Hartrees-Bohrs-Radians)
 Second derivative matrix not updated -- first step.
 The second derivative matrix:
                          X1        Y1        Z1        X2        Y2
           X1           1.00000
           Y1           0.00000   1.00000
           Z1           0.00000   0.00000   1.00000
           X2           0.00000   0.00000   0.00000   1.00000
           Y2           0.00000   0.00000   0.00000   0.00000   1.00000
           Z2           0.00000   0.00000   0.00000   0.00000   0.00000
           X3           0.00000   0.00000   0.00000   0.00000   0.00000
           Y3           0.00000   0.00000   0.00000   0.00000   0.00000
           Z3           0.00000   0.00000   0.00000   0.00000   0.00000
           X4           0.00000   0.00000   0.00000   0.00000   0.00000
           Y4           0.00000   0.00000   0.00000   0.00000   0.00000
           Z4           0.00000   0.00000   0.00000   0.00000   0.00000
                          Z2        X3        Y3        Z3        X4
           Z2           1.00000
           X3           0.00000   1.00000
           Y3           0.00000   0.00000   1.00000
           Z3           0.00000   0.00000   0.00000   1.00000
           X4           0.00000   0.00000   0.00000   0.00000   1.00000
           Y4           0.00000   0.00000   0.00000   0.00000   0.00000
           Z4           0.00000   0.00000   0.00000   0.00000   0.00000
                          Y4        Z4
           Y4           1.00000
           Z4           0.00000   1.00000
 ITU=  0
     Eigenvalues ---    1.00000   1.00000   1.00000   1.00000   1.00000
     Eigenvalues ---    1.00000   1.00000   1.00000   1.00000   1.00000
     Eigenvalues ---    1.00000   1.00000
 Angle between quadratic step and forces=   0.00 degrees.
 Linear search not attempted -- first point.
 B after Tr=     0.000007    0.000003   -0.000004
         Rot=    1.000000    0.000000    0.000000    0.000000 Ang=   0.00 deg.
 Variable       Old X    -DE/DX   Delta X   Delta X   Delta X     New X
                                 (Linear)    (Quad)   (Total)
    X1        1.75144   0.00281   0.00000   0.00281   0.00281   1.75424
    Y1       42.97502  -0.02299   0.00000  -0.02299  -0.02299  42.95203
    Z1       31.81316  -0.02015   0.00000  -0.02015  -0.02015  31.79301
    X2        1.75185  -0.00058   0.00000  -0.00058  -0.00058   1.75127
    Y2       45.07772   0.02159   0.00000   0.02159   0.02159  45.09931
    Z2       34.07403   0.02190   0.00000   0.02190   0.02190  34.09593
    X3       -1.40123   0.05281   0.00000   0.05281   0.05281  -1.34842
    Y3       43.72203  -0.02173   0.00000  -0.02173  -0.02173  43.70030
    Z3       28.10798   0.01702   0.00000   0.01702   0.01702  28.12499
    X4        0.65500  -0.05504   0.00000  -0.05504  -0.05504   0.59996
    Y4       42.88563   0.02313   0.00000   0.02313   0.02313  42.90876
    Z4       28.83476  -0.01876   0.00000  -0.01876  -0.01876  28.81600
         Item               Value     Threshold  Converged?
 Maximum Force            0.055040     0.000450     NO 
 RMS     Force            0.027922     0.000300     NO 
 Maximum Displacement     0.055040     0.001800     NO 
 RMS     Displacement     0.027922     0.001200     NO 
 Predicted change in Energy=-4.677890D-03
 GradGradGradGradGradGradGradGradGradGradGradGradGradGradGradGradGradGrad

 1\1\GINC-H08R06\Force\UB3LYP\3-21G*\H3O1(4)\ACKGYDJ0BD\09-Jul-2026\0\\
 #force b3lyp/3-21G* Geom=PrintInputOrient\\Generated by MDDatasetMaker
  (Author: Jinzhe Zeng)\\0,4\H,0.92682,22.7414,16.8348\H,0.92704,23.854
 1,18.0312\H,-0.7415,23.1367,14.8741\O,0.34661,22.6941,15.2587\\Version
 =EM64L-G16RevB.01\State=4-A\HF=-76.2513363\S2=3.753547\S2-1=0.\S2A=3.7
 50001\RMSD=4.315e-09\RMSF=2.792e-02\Dipole=-0.5637763,0.1953734,-0.379
 3386\Quadrupole=0.7523826,-0.0501559,-0.7022267,-0.061674,0.5027077,-0
 .5407381\PG=C01 [X(H3O1)]\\@


 A MAN SHOULD NEVER BE ASHAMED TO OWN HE HAS BEEN IN THE WRONG
 WHICH IS BUT SAYING IN OTHER WORDS,
 THAT HE IS WISER TODAY THAN HE WAS YESTERDAY.

                          -- JONATHAN SWIFT
 Job cpu time:       0 days  0 hours  2 minutes 29.8 seconds.
 Elapsed time:       0 days  0 hours  0 minutes  3.1 seconds.
 File lengths (MBytes):  RWF=      6 Int=      0 D2E=      0 Chk=      1 Scr=      1
 Normal termination of Gaussian 16 at Thu Jul  9 10:27:57 2026.
