 Entering Gaussian System, Link 0=g16
 Input=loop1_C1_00.gjf
 Output=loop1_C1_00.log
 Initial command:
 /work/home/ackgydj0bd/apprepo/gaussian/16b.01-none_v1.3/app/g16/l1.exe "/work/home/ackgydj0bd/apprepo/gaussian/16b.01-none_v1.3/app/g16/scratch/Gau-228671.inp" -scrdir="/work/home/ackgydj0bd/apprepo/gaussian/16b.01-none_v1.3/app/g16/scratch/"
 Entering Link 1 = /work/home/ackgydj0bd/apprepo/gaussian/16b.01-none_v1.3/app/g16/l1.exe PID=    228672.
  
 Copyright (c) 1988-2017, Gaussian, Inc.  All Rights Reserved.
  
 This is part of the Gaussian(R) 16 program.  It is based on
 the Gaussian(R) 09 system (copyright 2009, Gaussian, Inc.),
 the Gaussian(R) 03 system (copyright 2003, Gaussian, Inc.),
 the Gaussian(R) 98 system (copyright 1998, Gaussian, Inc.),
 the Gaussian(R) 94 system (copyright 1995, Gaussian, Inc.),
 the Gaussian 92(TM) system (copyright 1992, Gaussian, Inc.),
 the Gaussian 90(TM) system (copyright 1990, Gaussian, Inc.),
 the Gaussian 88(TM) system (copyright 1988, Gaussian, Inc.),
 the Gaussian 86(TM) system (copyright 1986, Carnegie Mellon
 University), and the Gaussian 82(TM) system (copyright 1983,
 Carnegie Mellon University). Gaussian is a federally registered
 trademark of Gaussian, Inc.
  
 This software contains proprietary and confidential information,
 including trade secrets, belonging to Gaussian, Inc.
  
 This software is provided under written license and may be
 used, copied, transmitted, or stored only in accord with that
 written license.
  
 The following legend is applicable only to US Government
 contracts under FAR:
  
                    RESTRICTED RIGHTS LEGEND
  
 Use, reproduction and disclosure by the US Government is
 subject to restrictions as set forth in subparagraphs (a)
 and (c) of the Commercial Computer Software - Restricted
 Rights clause in FAR 52.227-19.
  
 Gaussian, Inc.
 340 Quinnipiac St., Bldg. 40, Wallingford CT 06492
  
  
 ---------------------------------------------------------------
 Warning -- This program may not be used in any manner that
 competes with the business of Gaussian, Inc. or will provide
 assistance to any competitor of Gaussian, Inc.  The licensee
 of this program is prohibited from giving any competitor of
 Gaussian, Inc. access to this program.  By using this program,
 the user acknowledges that Gaussian, Inc. is engaged in the
 business of creating and licensing software in the field of
 computational chemistry and represents and warrants to the
 licensee that it is not a competitor of Gaussian, Inc. and that
 it will not use this program in any manner prohibited above.
 ---------------------------------------------------------------
  

 Cite this work as:
 Gaussian 16, Revision B.01,
 M. J. Frisch, G. W. Trucks, H. B. Schlegel, G. E. Scuseria, 
 M. A. Robb, J. R. Cheeseman, G. Scalmani, V. Barone, 
 G. A. Petersson, H. Nakatsuji, X. Li, M. Caricato, A. V. Marenich, 
 J. Bloino, B. G. Janesko, R. Gomperts, B. Mennucci, H. P. Hratchian, 
 J. V. Ortiz, A. F. Izmaylov, J. L. Sonnenberg, D. Williams-Young, 
 F. Ding, F. Lipparini, F. Egidi, J. Goings, B. Peng, A. Petrone, 
 T. Henderson, D. Ranasinghe, V. G. Zakrzewski, J. Gao, N. Rega, 
 G. Zheng, W. Liang, M. Hada, M. Ehara, K. Toyota, R. Fukuda, 
 J. Hasegawa, M. Ishida, T. Nakajima, Y. Honda, O. Kitao, H. Nakai, 
 T. Vreven, K. Throssell, J. A. Montgomery, Jr., J. E. Peralta, 
 F. Ogliaro, M. J. Bearpark, J. J. Heyd, E. N. Brothers, K. N. Kudin, 
 V. N. Staroverov, T. A. Keith, R. Kobayashi, J. Normand, 
 K. Raghavachari, A. P. Rendell, J. C. Burant, S. S. Iyengar, 
 J. Tomasi, M. Cossi, J. M. Millam, M. Klene, C. Adamo, R. Cammi, 
 J. W. Ochterski, R. L. Martin, K. Morokuma, O. Farkas, 
 J. B. Foresman, and D. J. Fox, Gaussian, Inc., Wallingford CT, 2016.
 
 ******************************************
 Gaussian 16:  EM64L-G16RevB.01 20-Dec-2017
                 9-Jul-2026 
 ******************************************
 %nproc=64
 Will use up to   64 processors via shared memory.
 -----------------------------------------
 #force b3lyp/3-21G* Geom=PrintInputOrient
 -----------------------------------------
 1/10=7,30=1,38=1/1,3;
 2/9=2000,12=2,17=6,18=5,40=1/2;
 3/5=5,7=1,11=2,25=1,30=1,71=1,74=-5/1,2,3;
 4//1;
 5/5=2,38=5/2;
 6/7=2,8=2,9=2,10=2,28=1/1;
 7/29=1/1,2,3,16;
 1/10=7,30=1/3;
 99//99;
 -------------------------------------------------
 Generated by MDDatasetMaker (Author: Jinzhe Zeng)
 -------------------------------------------------
 Symbolic Z-matrix:
 Charge =  0 Multiplicity = 2
 C                     27.0992   24.7479   23.3923 
 O                     27.9648   25.1073   22.5372 
 H                     28.80877   25.5252   22.6409 
 

 GradGradGradGradGradGradGradGradGradGradGradGradGradGradGradGradGradGrad
 Berny optimization.
 Initialization pass.
 Trust Radius=3.00D-01 FncErr=1.00D-07 GrdErr=1.00D-07 EigMax=2.50D+02 EigMin=1.00D-04
 Number of steps in this run=      2 maximum allowed number of steps=      2.
 GradGradGradGradGradGradGradGradGradGradGradGradGradGradGradGradGradGrad

                          Input orientation:                          
 ---------------------------------------------------------------------
 Center     Atomic      Atomic             Coordinates (Angstroms)
 Number     Number       Type             X           Y           Z
 ---------------------------------------------------------------------
      1          6           0       27.099200   24.747900   23.392300
      2          8           0       27.964800   25.107300   22.537200
      3          1           0       28.808770   25.525200   22.640900
 ---------------------------------------------------------------------
                    Distance matrix (angstroms):
                    1          2          3
     1  C    0.000000
     2  O    1.268711   0.000000
     3  H    2.022728   0.947459   0.000000
 Stoichiometry    CHO(2)
 Framework group  CS[SG(CHO)]
 Deg. of freedom     3
 Full point group                 CS      NOp   2
 Largest Abelian subgroup         CS      NOp   2
 Largest concise Abelian subgroup C1      NOp   1
                         Standard orientation:                         
 ---------------------------------------------------------------------
 Center     Atomic      Atomic             Coordinates (Angstroms)
 Number     Number       Type             X           Y           Z
 ---------------------------------------------------------------------
      1          6           0        0.047513    0.802847    0.000000
      2          8           0        0.047513   -0.465864    0.000000
      3          1           0       -0.665176   -1.090167    0.000000
 ---------------------------------------------------------------------
 Rotational constants (GHZ):        1150.9257266          40.6960573          39.3062127
 Standard basis: 3-21G* (6D, 7F)
 There are    16 symmetry adapted cartesian basis functions of A'  symmetry.
 There are     4 symmetry adapted cartesian basis functions of A"  symmetry.
 There are    16 symmetry adapted basis functions of A'  symmetry.
 There are     4 symmetry adapted basis functions of A"  symmetry.
    20 basis functions,    33 primitive gaussians,    20 cartesian basis functions
     8 alpha electrons        7 beta electrons
       nuclear repulsion energy        26.0585900317 Hartrees.
 NAtoms=    3 NActive=    3 NUniq=    3 SFac= 1.00D+00 NAtFMM=   60 NAOKFM=F Big=F
 Integral buffers will be    131072 words long.
 Raffenetti 2 integral format.
 Two-electron integral symmetry is turned on.
 One-electron integrals computed using PRISM.
 PrsmSu:  requested number of processors reduced to:  31 ShMem   1 Linda.
 NBasis=    20 RedAO= T EigKep=  5.80D-02  NBF=    16     4
 NBsUse=    20 1.00D-06 EigRej= -1.00D+00 NBFU=    16     4
 ExpMin= 1.83D-01 ExpMax= 3.22D+02 ExpMxC= 3.22D+02 IAcc=3 IRadAn=         5 AccDes= 0.00D+00
 Harris functional with IExCor=  402 and IRadAn=       5 diagonalized for initial guess.
 HarFok:  IExCor=  402 AccDes= 0.00D+00 IRadAn=         5 IDoV= 1 UseB2=F ITyADJ=14
 ICtDFT=  3500011 ScaDFX=  1.000000  1.000000  1.000000  1.000000
 FoFCou: FMM=F IPFlag=           0 FMFlag=      100000 FMFlg1=           0
         NFxFlg=           0 DoJE=T BraDBF=F KetDBF=T FulRan=T
         wScrn=  0.000000 ICntrl=       500 IOpCl=  0 I1Cent=   200000004 NGrid=           0
         NMat0=    1 NMatS0=      1 NMatT0=    0 NMatD0=    1 NMtDS0=    0 NMtDT0=    0
 Petite list used in FoFCou.
 Initial guess orbital symmetries:
 Alpha Orbitals:
       Occupied  (A') (A') (A') (A') (A') (A") (A') (A')
       Virtual   (A") (A') (A') (A') (A") (A') (A') (A') (A") (A')
                 (A') (A')
 Beta  Orbitals:
       Occupied  (A') (A') (A') (A') (A') (A") (A')
       Virtual   (A') (A") (A') (A') (A') (A") (A') (A') (A') (A")
                 (A') (A') (A')
 The electronic state of the initial guess is 2-A'.
 Initial guess <Sx>= 0.0000 <Sy>= 0.0000 <Sz>= 0.5000 <S**2>= 0.7500 S= 0.5000
 Keep R1 and R2 ints in memory in symmetry-blocked form, NReq=55259081.
 Requested convergence on RMS density matrix=1.00D-08 within 128 cycles.
 Requested convergence on MAX density matrix=1.00D-06.
 Requested convergence on             energy=1.00D-06.
 No special actions if energy rises.
 Integral accuracy reduced to 1.0D-05 until final iterations.
 Initial convergence to 1.0D-05 achieved.  Increase integral accuracy.
 SCF Done:  E(UB3LYP) =  -113.139450496     A.U. after   14 cycles
            NFock= 14  Conv=0.28D-08     -V/T= 2.0068
 <Sx>= 0.0000 <Sy>= 0.0000 <Sz>= 0.5000 <S**2>= 0.7520 S= 0.5010
 <L.S>= 0.000000000000E+00
 Annihilation of the first spin contaminant:
 S**2 before annihilation     0.7520,   after     0.7500

 **********************************************************************

            Population analysis using the SCF Density.

 **********************************************************************

 Orbital symmetries:
 Alpha Orbitals:
       Occupied  (A') (A') (A') (A') (A') (A") (A') (A')
       Virtual   (A") (A') (A') (A') (A') (A") (A') (A') (A") (A')
                 (A') (A')
 Beta  Orbitals:
       Occupied  (A') (A') (A') (A') (A') (A") (A')
       Virtual   (A") (A') (A') (A') (A') (A") (A') (A') (A') (A")
                 (A') (A') (A')
 The electronic state is 2-A'.
 Alpha  occ. eigenvalues --  -19.13522 -10.19150  -1.13869  -0.72149  -0.46704
 Alpha  occ. eigenvalues --   -0.43396  -0.34051  -0.15938
 Alpha virt. eigenvalues --   -0.03243   0.07020   0.32783   0.70318   0.72535
 Alpha virt. eigenvalues --    0.72892   0.91546   1.12168   1.40295   1.43486
 Alpha virt. eigenvalues --    1.75931   2.87694
  Beta  occ. eigenvalues --  -19.13286 -10.17858  -1.13080  -0.70308  -0.43487
  Beta  occ. eigenvalues --   -0.43075  -0.30549
  Beta virt. eigenvalues --   -0.01448  -0.00479   0.08319   0.34543   0.73301
  Beta virt. eigenvalues --    0.74220   0.78125   0.93531   1.15273   1.40340
  Beta virt. eigenvalues --    1.44852   1.76275   2.88241
          Condensed to atoms (all electrons):
               1          2          3
     1  C    5.749289   0.141388  -0.026790
     2  O    0.141388   8.177066   0.210023
     3  H   -0.026790   0.210023   0.424402
          Atomic-Atomic Spin Densities.
               1          2          3
     1  C    1.030529  -0.095503  -0.034072
     2  O   -0.095503   0.159366  -0.033789
     3  H   -0.034072  -0.033789   0.136833
 Mulliken charges and spin densities:
               1          2
     1  C    0.136113   0.900954
     2  O   -0.528478   0.030074
     3  H    0.392365   0.068972
 Sum of Mulliken charges =   0.00000   1.00000
 Mulliken charges and spin densities with hydrogens summed into heavy atoms:
               1          2
     1  C    0.136113   0.900954
     2  O   -0.136113   0.099046
 Electronic spatial extent (au):  <R**2>=             51.2865
 Charge=              0.0000 electrons
 Dipole moment (field-independent basis, Debye):
    X=             -1.6588    Y=             -2.6064    Z=              0.0000  Tot=              3.0895
 Quadrupole moment (field-independent basis, Debye-Ang):
   XX=            -11.1791   YY=            -12.1847   ZZ=            -10.7175
   XY=              1.6784   XZ=              0.0000   YZ=              0.0000
 Traceless Quadrupole moment (field-independent basis, Debye-Ang):
   XX=              0.1813   YY=             -0.8242   ZZ=              0.6429
   XY=              1.6784   XZ=              0.0000   YZ=              0.0000
 Octapole moment (field-independent basis, Debye-Ang**2):
  XXX=             -1.5162  YYY=            -11.9840  ZZZ=              0.0000  XYY=             -2.0706
  XXY=             -3.7633  XXZ=              0.0000  XZZ=             -0.2487  YZZ=             -1.6553
  YYZ=              0.0000  XYZ=              0.0000
 Hexadecapole moment (field-independent basis, Debye-Ang**3):
 XXXX=            -11.1382 YYYY=            -45.3092 ZZZZ=             -8.1364 XXXY=             -0.6175
 XXXZ=              0.0000 YYYX=              0.4909 YYYZ=              0.0000 ZZZX=              0.0000
 ZZZY=              0.0000 XXYY=             -9.1392 XXZZ=             -3.2834 YYZZ=             -8.4648
 XXYZ=              0.0000 YYXZ=              0.0000 ZZXY=             -0.3613
 N-N= 2.605859003170D+01 E-N=-3.175850225964D+02  KE= 1.123737354757D+02
 Symmetry A'   KE= 1.081874793864D+02
 Symmetry A"   KE= 4.186256089351D+00
 Symmetry A'   SP= 1.000000000000D+00
 Symmetry A"   SP=-1.380297785791D-15
                          Isotropic Fermi Contact Couplings
        Atom                 a.u.       MegaHertz       Gauss      10(-4) cm-1
     1  C(13)              0.05842      65.67464      23.43435      21.90670
     2  O(17)              0.14951     -90.62965     -32.33891     -30.23080
     3  H(1)               0.03581     160.07015      57.11701      53.39366
 --------------------------------------------------------
       Center         ----  Spin Dipole Couplings  ----
                      3XX-RR        3YY-RR        3ZZ-RR
 --------------------------------------------------------
     1   Atom        1.060260     -0.542691     -0.517569
     2   Atom        0.229203      0.030844     -0.260046
     3   Atom       -0.006254      0.023922     -0.017668
 --------------------------------------------------------
                        XY            XZ            YZ
 --------------------------------------------------------
     1   Atom       -0.157828      0.000000      0.000000
     2   Atom       -0.278734      0.000000      0.000000
     3   Atom        0.014247      0.000000      0.000000
 --------------------------------------------------------


 ---------------------------------------------------------------------------------
              Anisotropic Spin Dipole Couplings in Principal Axis System
 ---------------------------------------------------------------------------------

       Atom             a.u.   MegaHertz   Gauss  10(-4) cm-1        Axes

              Baa    -0.5581   -74.889   -26.722   -24.980  0.0971  0.9953  0.0000
     1 C(13)  Bbb    -0.5176   -69.453   -24.783   -23.167  0.0000  0.0000  1.0000
              Bcc     1.0757   144.342    51.505    48.147  0.9953 -0.0971  0.0000
 
              Baa    -0.2600    18.817     6.714     6.277  0.0000  0.0000  1.0000
     2 O(17)  Bbb    -0.1658    11.999     4.282     4.003  0.5765  0.8171  0.0000
              Bcc     0.4259   -30.816   -10.996   -10.279  0.8171 -0.5765  0.0000
 
              Baa    -0.0177    -9.427    -3.364    -3.144  0.0000  0.0000  1.0000
     3 H(1)   Bbb    -0.0119    -6.359    -2.269    -2.121  0.9293 -0.3694  0.0000
              Bcc     0.0296    15.785     5.633     5.265  0.3694  0.9293  0.0000
 

 ---------------------------------------------------------------------------------

 PrsmSu:  requested number of processors reduced to:  31 ShMem   1 Linda.
 Calling FoFJK, ICntrl=      2127 FMM=F ISym2X=1 I1Cent= 0 IOpClX= 1 NMat=1 NMatS=1 NMatT=0.
 ***** Axes restored to original set *****
 -------------------------------------------------------------------
 Center     Atomic                   Forces (Hartrees/Bohr)
 Number     Number              X              Y              Z
 -------------------------------------------------------------------
      1        6          -0.018267731   -0.006610665    0.031578962
      2        8          -0.032486748   -0.019520041   -0.051694991
      3        1           0.050754479    0.026130706    0.020116028
 -------------------------------------------------------------------
 Cartesian Forces:  Max     0.051694991 RMS     0.031879844

 GradGradGradGradGradGradGradGradGradGradGradGradGradGradGradGradGradGrad
 Berny optimization.
 Search for a local minimum.
 Step number   1 out of a maximum of    2
 All quantities printed in internal units (Hartrees-Bohrs-Radians)
 Second derivative matrix not updated -- first step.
 The second derivative matrix:
                          X1        Y1        Z1        X2        Y2
           X1           0.55703
           Y1          -0.23792   0.87008
           Z1          -0.31244  -0.19747   0.36762
           X2          -0.36379  -0.15214   0.34411   1.01457
           Y2          -0.15396  -0.06485   0.13922  -0.01046   0.98368
           Z2           0.31895   0.12699  -0.39065  -0.24370  -0.15608
           X3          -0.00277  -0.00160  -0.00348  -0.46031  -0.22724
           Y3           0.00021   0.00012   0.00027  -0.22906  -0.11347
           Z3           0.02169   0.01250   0.02721  -0.07221  -0.04111
                          Z2        X3        Y3        Z3
           Z2           0.47812
           X3          -0.04705   0.65355
           Y3          -0.02888  -0.16282   0.91871
           Z3          -0.08329   0.07872  -0.02936   0.06026
 ITU=  0
     Eigenvalues ---    0.13517   0.78813   1.76286
 Angle between quadratic step and forces=  42.87 degrees.
 ClnCor:  largest displacement from symmetrization is 3.12D-17 for atom     3.
 Linear search not attempted -- first point.
 ClnCor:  largest displacement from symmetrization is 7.11D-15 for atom     1.
 B after Tr=    -0.770039   -0.285669    1.233772
         Rot=    0.999958    0.004018   -0.008263    0.000595 Ang=   1.06 deg.
 Variable       Old X    -DE/DX   Delta X   Delta X   Delta X     New X
                                 (Linear)    (Quad)   (Total)
    X1       51.21007  -0.01827   0.00000   0.01041   0.01720  51.22726
    Y1       46.76675  -0.00661   0.00000   0.00775   0.01133  46.77808
    Z1       44.20504   0.03158   0.00000   0.03742   0.04118  44.24622
    X2       52.84581  -0.03249   0.00000  -0.02384  -0.04513  52.80069
    Y2       47.44592  -0.01952   0.00000  -0.01711  -0.02945  47.41647
    Z2       42.58914  -0.05169   0.00000  -0.07660  -0.10427  42.48486
    X3       54.44069   0.05075   0.00000   0.04194   0.02793  54.46861
    Y3       48.23564   0.02613   0.00000   0.02939   0.01812  48.25376
    Z3       42.78510   0.02012   0.00000   0.12500   0.06309  42.84819
         Item               Value     Threshold  Converged?
 Maximum Force            0.051695     0.000450     NO 
 RMS     Force            0.031880     0.000300     NO 
 Maximum Displacement     0.104275     0.001800     NO 
 RMS     Displacement     0.048289     0.001200     NO 
 Predicted change in Energy=-5.704365D-03
 GradGradGradGradGradGradGradGradGradGradGradGradGradGradGradGradGradGrad

 1\1\GINC-H08R06\Force\UB3LYP\3-21G*\C1H1O1(2)\ACKGYDJ0BD\09-Jul-2026\0
 \\#force b3lyp/3-21G* Geom=PrintInputOrient\\Generated by MDDatasetMak
 er (Author: Jinzhe Zeng)\\0,2\C,27.0992,24.7479,23.3923\O,27.9648,25.1
 073,22.5372\H,28.80877,25.5252,22.6409\\Version=EM64L-G16RevB.01\State
 =2-A'\HF=-113.1394505\S2=0.752005\S2-1=0.\S2A=0.750003\RMSD=2.781e-09\
 RMSF=3.188e-02\Dipole=1.0824194,0.511218,-0.2108596\Quadrupole=0.85088
 96,0.5903081,-1.4411977,0.21638,0.4866604,0.0985181\PG=CS [SG(C1H1O1)]
 \\@


 NO SCIENCE HAS EVER MADE MORE RAPID PROGRESS IN A
 SHORTER TIME THAN CHEMISTRY.
   -- MARTIN HEINRICH KLOPROTH, 1791
 (FIRST PROFESSOR OF CHEMISTRY AT THE UNIVERSITY OF BERLIN)
 Job cpu time:       0 days  0 hours  3 minutes 18.5 seconds.
 Elapsed time:       0 days  0 hours  0 minutes  3.9 seconds.
 File lengths (MBytes):  RWF=      6 Int=      0 D2E=      0 Chk=      1 Scr=      1
 Normal termination of Gaussian 16 at Thu Jul  9 10:25:48 2026.
