 Entering Gaussian System, Link 0=g16
 Input=loop1_C1_05.gjf
 Output=loop1_C1_05.log
 Initial command:
 /work/home/ackgydj0bd/apprepo/gaussian/16b.01-none_v1.3/app/g16/l1.exe "/work/home/ackgydj0bd/apprepo/gaussian/16b.01-none_v1.3/app/g16/scratch/Gau-234469.inp" -scrdir="/work/home/ackgydj0bd/apprepo/gaussian/16b.01-none_v1.3/app/g16/scratch/"
 Entering Link 1 = /work/home/ackgydj0bd/apprepo/gaussian/16b.01-none_v1.3/app/g16/l1.exe PID=    234470.
  
 Copyright (c) 1988-2017, Gaussian, Inc.  All Rights Reserved.
  
 This is part of the Gaussian(R) 16 program.  It is based on
 the Gaussian(R) 09 system (copyright 2009, Gaussian, Inc.),
 the Gaussian(R) 03 system (copyright 2003, Gaussian, Inc.),
 the Gaussian(R) 98 system (copyright 1998, Gaussian, Inc.),
 the Gaussian(R) 94 system (copyright 1995, Gaussian, Inc.),
 the Gaussian 92(TM) system (copyright 1992, Gaussian, Inc.),
 the Gaussian 90(TM) system (copyright 1990, Gaussian, Inc.),
 the Gaussian 88(TM) system (copyright 1988, Gaussian, Inc.),
 the Gaussian 86(TM) system (copyright 1986, Carnegie Mellon
 University), and the Gaussian 82(TM) system (copyright 1983,
 Carnegie Mellon University). Gaussian is a federally registered
 trademark of Gaussian, Inc.
  
 This software contains proprietary and confidential information,
 including trade secrets, belonging to Gaussian, Inc.
  
 This software is provided under written license and may be
 used, copied, transmitted, or stored only in accord with that
 written license.
  
 The following legend is applicable only to US Government
 contracts under FAR:
  
                    RESTRICTED RIGHTS LEGEND
  
 Use, reproduction and disclosure by the US Government is
 subject to restrictions as set forth in subparagraphs (a)
 and (c) of the Commercial Computer Software - Restricted
 Rights clause in FAR 52.227-19.
  
 Gaussian, Inc.
 340 Quinnipiac St., Bldg. 40, Wallingford CT 06492
  
  
 ---------------------------------------------------------------
 Warning -- This program may not be used in any manner that
 competes with the business of Gaussian, Inc. or will provide
 assistance to any competitor of Gaussian, Inc.  The licensee
 of this program is prohibited from giving any competitor of
 Gaussian, Inc. access to this program.  By using this program,
 the user acknowledges that Gaussian, Inc. is engaged in the
 business of creating and licensing software in the field of
 computational chemistry and represents and warrants to the
 licensee that it is not a competitor of Gaussian, Inc. and that
 it will not use this program in any manner prohibited above.
 ---------------------------------------------------------------
  

 Cite this work as:
 Gaussian 16, Revision B.01,
 M. J. Frisch, G. W. Trucks, H. B. Schlegel, G. E. Scuseria, 
 M. A. Robb, J. R. Cheeseman, G. Scalmani, V. Barone, 
 G. A. Petersson, H. Nakatsuji, X. Li, M. Caricato, A. V. Marenich, 
 J. Bloino, B. G. Janesko, R. Gomperts, B. Mennucci, H. P. Hratchian, 
 J. V. Ortiz, A. F. Izmaylov, J. L. Sonnenberg, D. Williams-Young, 
 F. Ding, F. Lipparini, F. Egidi, J. Goings, B. Peng, A. Petrone, 
 T. Henderson, D. Ranasinghe, V. G. Zakrzewski, J. Gao, N. Rega, 
 G. Zheng, W. Liang, M. Hada, M. Ehara, K. Toyota, R. Fukuda, 
 J. Hasegawa, M. Ishida, T. Nakajima, Y. Honda, O. Kitao, H. Nakai, 
 T. Vreven, K. Throssell, J. A. Montgomery, Jr., J. E. Peralta, 
 F. Ogliaro, M. J. Bearpark, J. J. Heyd, E. N. Brothers, K. N. Kudin, 
 V. N. Staroverov, T. A. Keith, R. Kobayashi, J. Normand, 
 K. Raghavachari, A. P. Rendell, J. C. Burant, S. S. Iyengar, 
 J. Tomasi, M. Cossi, J. M. Millam, M. Klene, C. Adamo, R. Cammi, 
 J. W. Ochterski, R. L. Martin, K. Morokuma, O. Farkas, 
 J. B. Foresman, and D. J. Fox, Gaussian, Inc., Wallingford CT, 2016.
 
 ******************************************
 Gaussian 16:  EM64L-G16RevB.01 20-Dec-2017
                 9-Jul-2026 
 ******************************************
 %nproc=64
 Will use up to   64 processors via shared memory.
 -----------------------------------------
 #force b3lyp/3-21G* Geom=PrintInputOrient
 -----------------------------------------
 1/10=7,30=1,38=1/1,3;
 2/9=2000,12=2,17=6,18=5,40=1/2;
 3/5=5,7=1,11=2,25=1,30=1,71=1,74=-5/1,2,3;
 4//1;
 5/5=2,38=5/2;
 6/7=2,8=2,9=2,10=2,28=1/1;
 7/29=1/1,2,3,16;
 1/10=7,30=1/3;
 99//99;
 -------------------------------------------------
 Generated by MDDatasetMaker (Author: Jinzhe Zeng)
 -------------------------------------------------
 Symbolic Z-matrix:
 Charge =  0 Multiplicity = 2
 C                     15.1262   6.39068   9.498 
 O                     14.2326   6.09014   10.8731 
 H                     14.2392   4.91624   9.43176 
 

 GradGradGradGradGradGradGradGradGradGradGradGradGradGradGradGradGradGrad
 Berny optimization.
 Initialization pass.
 Trust Radius=3.00D-01 FncErr=1.00D-07 GrdErr=1.00D-07 EigMax=2.50D+02 EigMin=1.00D-04
 Number of steps in this run=      2 maximum allowed number of steps=      2.
 GradGradGradGradGradGradGradGradGradGradGradGradGradGradGradGradGradGrad

                          Input orientation:                          
 ---------------------------------------------------------------------
 Center     Atomic      Atomic             Coordinates (Angstroms)
 Number     Number       Type             X           Y           Z
 ---------------------------------------------------------------------
      1          6           0       15.126200    6.390680    9.498000
      2          8           0       14.232600    6.090140   10.873100
      3          1           0       14.239200    4.916240    9.431760
 ---------------------------------------------------------------------
                    Distance matrix (angstroms):
                    1          2          3
     1  C    0.000000
     2  O    1.667257   0.000000
     3  H    1.721955   1.858910   0.000000
 Stoichiometry    CHO(2)
 Framework group  CS[SG(CHO)]
 Deg. of freedom     3
 Full point group                 CS      NOp   2
 Largest Abelian subgroup         CS      NOp   2
 Largest concise Abelian subgroup C1      NOp   1
                         Standard orientation:                         
 ---------------------------------------------------------------------
 Center     Atomic      Atomic             Coordinates (Angstroms)
 Number     Number       Type             X           Y           Z
 ---------------------------------------------------------------------
      1          6           0        0.105278    0.934974    0.000000
      2          8           0        0.105278   -0.732283    0.000000
      3          1           0       -1.473890    0.248418    0.000000
 ---------------------------------------------------------------------
 Rotational constants (GHZ):         209.1838969          26.4079841          23.4478582
 Standard basis: 3-21G* (6D, 7F)
 There are    16 symmetry adapted cartesian basis functions of A'  symmetry.
 There are     4 symmetry adapted cartesian basis functions of A"  symmetry.
 There are    16 symmetry adapted basis functions of A'  symmetry.
 There are     4 symmetry adapted basis functions of A"  symmetry.
    20 basis functions,    33 primitive gaussians,    20 cartesian basis functions
     8 alpha electrons        7 beta electrons
       nuclear repulsion energy        19.3561459352 Hartrees.
 NAtoms=    3 NActive=    3 NUniq=    3 SFac= 1.00D+00 NAtFMM=   60 NAOKFM=F Big=F
 Integral buffers will be    131072 words long.
 Raffenetti 2 integral format.
 Two-electron integral symmetry is turned on.
 One-electron integrals computed using PRISM.
 PrsmSu:  requested number of processors reduced to:  31 ShMem   1 Linda.
 NBasis=    20 RedAO= T EigKep=  9.21D-02  NBF=    16     4
 NBsUse=    20 1.00D-06 EigRej= -1.00D+00 NBFU=    16     4
 ExpMin= 1.83D-01 ExpMax= 3.22D+02 ExpMxC= 3.22D+02 IAcc=3 IRadAn=         5 AccDes= 0.00D+00
 Harris functional with IExCor=  402 and IRadAn=       5 diagonalized for initial guess.
 HarFok:  IExCor=  402 AccDes= 0.00D+00 IRadAn=         5 IDoV= 1 UseB2=F ITyADJ=14
 ICtDFT=  3500011 ScaDFX=  1.000000  1.000000  1.000000  1.000000
 FoFCou: FMM=F IPFlag=           0 FMFlag=      100000 FMFlg1=           0
         NFxFlg=           0 DoJE=T BraDBF=F KetDBF=T FulRan=T
         wScrn=  0.000000 ICntrl=       500 IOpCl=  0 I1Cent=   200000004 NGrid=           0
         NMat0=    1 NMatS0=      1 NMatT0=    0 NMatD0=    1 NMtDS0=    0 NMtDT0=    0
 Petite list used in FoFCou.
 Initial guess orbital symmetries:
 Alpha Orbitals:
       Occupied  (A') (A') (A') (A') (A') (A') (A") (A')
       Virtual   (A") (A') (A') (A') (A") (A') (A') (A') (A") (A')
                 (A') (A')
 Beta  Orbitals:
       Occupied  (A') (A') (A') (A') (A') (A') (A")
       Virtual   (A') (A") (A') (A') (A') (A") (A') (A') (A') (A")
                 (A') (A') (A')
 The electronic state of the initial guess is 2-A'.
 Initial guess <Sx>= 0.0000 <Sy>= 0.0000 <Sz>= 0.5000 <S**2>= 0.7500 S= 0.5000
 Keep R1 and R2 ints in memory in symmetry-blocked form, NReq=55259075.
 Requested convergence on RMS density matrix=1.00D-08 within 128 cycles.
 Requested convergence on MAX density matrix=1.00D-06.
 Requested convergence on             energy=1.00D-06.
 No special actions if energy rises.
 Integral accuracy reduced to 1.0D-05 until final iterations.
 Initial convergence to 1.0D-05 achieved.  Increase integral accuracy.
 SCF Done:  E(UB3LYP) =  -113.016931070     A.U. after   24 cycles
            NFock= 24  Conv=0.99D-08     -V/T= 2.0139
 <Sx>= 0.0000 <Sy>= 0.0000 <Sz>= 0.5000 <S**2>= 0.8184 S= 0.5336
 <L.S>= 0.000000000000E+00
 Annihilation of the first spin contaminant:
 S**2 before annihilation     0.8184,   after     0.7516

 **********************************************************************

            Population analysis using the SCF Density.

 **********************************************************************

 Orbital symmetries:
 Alpha Orbitals:
       Occupied  (A') (A') (A') (A') (A') (A") (A') (A')
       Virtual   (A") (A') (A') (A") (A') (A') (A') (A') (A') (A")
                 (A') (A')
 Beta  Orbitals:
       Occupied  (A') (A') (A') (A') (A') (A') (A")
       Virtual   (A") (A') (A') (A') (A") (A') (A') (A') (A') (A")
                 (A') (A') (A')
 The electronic state is 2-A'.
 Alpha  occ. eigenvalues --  -19.13866 -10.30954  -0.98871  -0.58515  -0.43072
 Alpha  occ. eigenvalues --   -0.36379  -0.36301  -0.27749
 Alpha virt. eigenvalues --   -0.12795  -0.07843   0.03000   0.68651   0.68807
 Alpha virt. eigenvalues --    0.70634   0.92333   1.17338   1.39489   1.39889
 Alpha virt. eigenvalues --    1.53172   2.48760
  Beta  occ. eigenvalues --  -19.11385 -10.31175  -0.92563  -0.57654  -0.35343
  Beta  occ. eigenvalues --   -0.34154  -0.32134
  Beta virt. eigenvalues --   -0.13434  -0.12398  -0.05445   0.04112   0.67225
  Beta virt. eigenvalues --    0.68228   0.71650   0.96539   1.17188   1.43604
  Beta virt. eigenvalues --    1.47937   1.55649   2.53597
          Condensed to atoms (all electrons):
               1          2          3
     1  C    5.534381   0.188265   0.164347
     2  O    0.188265   8.006744  -0.003678
     3  H    0.164347  -0.003678   0.761007
          Atomic-Atomic Spin Densities.
               1          2          3
     1  C   -0.166719  -0.069900   0.035960
     2  O   -0.069900   1.104310  -0.062208
     3  H    0.035960  -0.062208   0.254704
 Mulliken charges and spin densities:
               1          2
     1  C    0.113008  -0.200659
     2  O   -0.191331   0.972203
     3  H    0.078324   0.228457
 Sum of Mulliken charges =   0.00000   1.00000
 Mulliken charges and spin densities with hydrogens summed into heavy atoms:
               1          2
     1  C    0.191331   0.027797
     2  O   -0.191331   0.972203
 Electronic spatial extent (au):  <R**2>=             69.5716
 Charge=              0.0000 electrons
 Dipole moment (field-independent basis, Debye):
    X=             -0.5880    Y=              0.4292    Z=              0.0000  Tot=              0.7280
 Quadrupole moment (field-independent basis, Debye-Ang):
   XX=            -11.0471   YY=            -13.5518   ZZ=            -11.7030
   XY=             -0.0604   XZ=              0.0000   YZ=              0.0000
 Traceless Quadrupole moment (field-independent basis, Debye-Ang):
   XX=              1.0535   YY=             -1.4511   ZZ=              0.3976
   XY=             -0.0604   XZ=              0.0000   YZ=              0.0000
 Octapole moment (field-independent basis, Debye-Ang**2):
  XXX=             -0.2012  YYY=             -8.0726  ZZZ=              0.0000  XYY=              0.1773
  XXY=             -2.6759  XXZ=              0.0000  XZZ=              0.5385  YZZ=             -1.7871
  YYZ=              0.0000  XYZ=              0.0000
 Hexadecapole moment (field-independent basis, Debye-Ang**3):
 XXXX=            -21.4432 YYYY=            -61.2724 ZZZZ=             -9.5378 XXXY=              0.6477
 XXXZ=              0.0000 YYYX=              0.1603 YYYZ=              0.0000 ZZZX=              0.0000
 ZZZY=              0.0000 XXYY=            -14.3030 XXZZ=             -5.7625 YYZZ=            -11.0407
 XXYZ=              0.0000 YYXZ=              0.0000 ZZXY=              0.2882
 N-N= 1.935614593521D+01 E-N=-3.037138279110D+02  KE= 1.114637289907D+02
 Symmetry A'   KE= 1.073456847545D+02
 Symmetry A"   KE= 4.118044236151D+00
 Symmetry A'   SP= 1.000000000000D+00
 Symmetry A"   SP=-9.460748157109D-16
                          Isotropic Fermi Contact Couplings
        Atom                 a.u.       MegaHertz       Gauss      10(-4) cm-1
     1  C(13)              0.01081      12.15185       4.33608       4.05342
     2  O(17)              0.10593     -64.21212     -22.91248     -21.41886
     3  H(1)               0.07465     333.65783     119.05741     111.29627
 --------------------------------------------------------
       Center         ----  Spin Dipole Couplings  ----
                      3XX-RR        3YY-RR        3ZZ-RR
 --------------------------------------------------------
     1   Atom        0.228992      0.006835     -0.235828
     2   Atom        2.192603     -1.462956     -0.729648
     3   Atom        0.010032      0.003714     -0.013746
 --------------------------------------------------------
                        XY            XZ            YZ
 --------------------------------------------------------
     1   Atom        0.078439      0.000000      0.000000
     2   Atom       -0.345665      0.000000      0.000000
     3   Atom       -0.021946      0.000000      0.000000
 --------------------------------------------------------


 ---------------------------------------------------------------------------------
              Anisotropic Spin Dipole Couplings in Principal Axis System
 ---------------------------------------------------------------------------------

       Atom             a.u.   MegaHertz   Gauss  10(-4) cm-1        Axes

              Baa    -0.2358   -31.646   -11.292   -10.556  0.0000  0.0000  1.0000
     1 C(13)  Bbb    -0.0181    -2.425    -0.865    -0.809 -0.3026  0.9531  0.0000
              Bcc     0.2539    34.070    12.157    11.365  0.9531  0.3026  0.0000
 
              Baa    -1.4954   108.203    38.609    36.093  0.0933  0.9956  0.0000
     2 O(17)  Bbb    -0.7296    52.797    18.839    17.611  0.0000  0.0000  1.0000
              Bcc     2.2250  -161.000   -57.449   -53.704  0.9956 -0.0933  0.0000
 
              Baa    -0.0153    -8.163    -2.913    -2.723  0.6548  0.7558  0.0000
     3 H(1)   Bbb    -0.0137    -7.334    -2.617    -2.446  0.0000  0.0000  1.0000
              Bcc     0.0290    15.497     5.530     5.169  0.7558 -0.6548  0.0000
 

 ---------------------------------------------------------------------------------

 PrsmSu:  requested number of processors reduced to:  31 ShMem   1 Linda.
 Calling FoFJK, ICntrl=      2127 FMM=F ISym2X=1 I1Cent= 0 IOpClX= 1 NMat=1 NMatS=1 NMatT=0.
 ***** Axes restored to original set *****
 -------------------------------------------------------------------
 Center     Atomic                   Forces (Hartrees/Bohr)
 Number     Number              X              Y              Z
 -------------------------------------------------------------------
      1        6          -0.108370855   -0.078142715    0.116027286
      2        8           0.076880574    0.033781987   -0.108662419
      3        1           0.031490281    0.044360728   -0.007364867
 -------------------------------------------------------------------
 Cartesian Forces:  Max     0.116027286 RMS     0.076873617

 GradGradGradGradGradGradGradGradGradGradGradGradGradGradGradGradGradGrad
 Berny optimization.
 Search for a local minimum.
 Step number   1 out of a maximum of    2
 All quantities printed in internal units (Hartrees-Bohrs-Radians)
 Second derivative matrix not updated -- first step.
 The second derivative matrix:
                          X1        Y1        Z1        X2        Y2
           X1           0.76925
           Y1          -0.07761   0.97390
           Z1           0.35509   0.11942   0.45358
           X2          -0.05651  -0.01901   0.08697   0.76925
           Y2          -0.01901  -0.00639   0.02925  -0.07761   0.97390
           Z2           0.08697   0.02925  -0.13382   0.35509   0.11942
           X3           0.00000   0.00000   0.00000   0.00000   0.00000
           Y3           0.00000   0.00000   0.00000   0.00000   0.00000
           Z3           0.00000   0.00000   0.00000   0.00000   0.00000
                          Z2        X3        Y3        Z3
           Z2           0.45358
           X3           0.00000   1.00000
           Y3           0.00000   0.00000   1.00000
           Z3           0.00000   0.00000   0.00000   1.00000
 ITU=  0
     Eigenvalues ---    0.39137   0.94653   1.00000
 Quadratic step=5.595D-01 exceeds max=3.000D-01 adjusted using Lamda=-3.434D-01.
 Angle between NR and scaled steps=   2.87 degrees.
 Angle between quadratic step and forces=  10.97 degrees.
 ClnCor:  largest displacement from symmetrization is 1.44D-16 for atom     1.
 Linear search not attempted -- first point.
 ClnCor:  largest displacement from symmetrization is 1.78D-15 for atom     3.
 B after Tr=    -0.098202   -0.031392    0.153107
         Rot=    0.999993    0.002813   -0.001757    0.001444 Ang=   0.41 deg.
 Variable       Old X    -DE/DX   Delta X   Delta X   Delta X     New X
                                 (Linear)    (Quad)   (Total)
    X1       28.58438  -0.10837   0.00000  -0.12996  -0.13001  28.45437
    Y1       12.07663  -0.07814   0.00000  -0.06021  -0.07240  12.00424
    Z1       17.94862   0.11603   0.00000   0.17990   0.16517  18.11378
    X2       26.89572   0.07688   0.00000   0.10174   0.10834  27.00406
    Y2       11.50870   0.03378   0.00000   0.03847   0.04326  11.55196
    Z2       20.54718  -0.10866   0.00000  -0.15139  -0.15842  20.38876
    X3       26.90819   0.03149   0.00000   0.03055   0.02166  26.92985
    Y3        9.29035   0.04436   0.00000   0.03866   0.02914   9.31948
    Z3       17.82344  -0.00736   0.00000  -0.01247  -0.00675  17.81670
         Item               Value     Threshold  Converged?
 Maximum Force            0.116027     0.000450     NO 
 RMS     Force            0.076874     0.000300     NO 
 Maximum Displacement     0.165166     0.001800     NO 
 RMS     Displacement     0.099718     0.001200     NO 
 Predicted change in Energy=-4.949441D-02
 GradGradGradGradGradGradGradGradGradGradGradGradGradGradGradGradGradGrad

 1\1\GINC-H08R06\Force\UB3LYP\3-21G*\C1H1O1(2)\ACKGYDJ0BD\09-Jul-2026\0
 \\#force b3lyp/3-21G* Geom=PrintInputOrient\\Generated by MDDatasetMak
 er (Author: Jinzhe Zeng)\\0,2\C,15.1262,6.39068,9.498\O,14.2326,6.0901
 4,10.8731\H,14.2392,4.91624,9.43176\\Version=EM64L-G16RevB.01\State=2-
 A'\HF=-113.0169311\S2=0.818365\S2-1=0.\S2A=0.75164\RMSD=9.860e-09\RMSF
 =7.687e-02\Dipole=0.0144766,-0.1674224,-0.231933\Quadrupole=-0.0623753
 ,0.5938376,-0.5314623,-0.0189703,0.6743228,0.3998488\PG=CS [SG(C1H1O1)
 ]\\@


 THE RED LIGHT IS ALWAYS LONGER THAN THE GREEN LIGHT.

                     -- PETER'S THEORY OF RELATIVITY
 Job cpu time:       0 days  0 hours  2 minutes 23.6 seconds.
 Elapsed time:       0 days  0 hours  0 minutes  3.0 seconds.
 File lengths (MBytes):  RWF=      6 Int=      0 D2E=      0 Chk=      1 Scr=      1
 Normal termination of Gaussian 16 at Thu Jul  9 10:26:07 2026.
