 Entering Gaussian System, Link 0=g16
 Input=loop1_H1_03.gjf
 Output=loop1_H1_03.log
 Initial command:
 /work/home/ackgydj0bd/apprepo/gaussian/16b.01-none_v1.3/app/g16/l1.exe "/work/home/ackgydj0bd/apprepo/gaussian/16b.01-none_v1.3/app/g16/scratch/Gau-9192.inp" -scrdir="/work/home/ackgydj0bd/apprepo/gaussian/16b.01-none_v1.3/app/g16/scratch/"
 Entering Link 1 = /work/home/ackgydj0bd/apprepo/gaussian/16b.01-none_v1.3/app/g16/l1.exe PID=      9193.
  
 Copyright (c) 1988-2017, Gaussian, Inc.  All Rights Reserved.
  
 This is part of the Gaussian(R) 16 program.  It is based on
 the Gaussian(R) 09 system (copyright 2009, Gaussian, Inc.),
 the Gaussian(R) 03 system (copyright 2003, Gaussian, Inc.),
 the Gaussian(R) 98 system (copyright 1998, Gaussian, Inc.),
 the Gaussian(R) 94 system (copyright 1995, Gaussian, Inc.),
 the Gaussian 92(TM) system (copyright 1992, Gaussian, Inc.),
 the Gaussian 90(TM) system (copyright 1990, Gaussian, Inc.),
 the Gaussian 88(TM) system (copyright 1988, Gaussian, Inc.),
 the Gaussian 86(TM) system (copyright 1986, Carnegie Mellon
 University), and the Gaussian 82(TM) system (copyright 1983,
 Carnegie Mellon University). Gaussian is a federally registered
 trademark of Gaussian, Inc.
  
 This software contains proprietary and confidential information,
 including trade secrets, belonging to Gaussian, Inc.
  
 This software is provided under written license and may be
 used, copied, transmitted, or stored only in accord with that
 written license.
  
 The following legend is applicable only to US Government
 contracts under FAR:
  
                    RESTRICTED RIGHTS LEGEND
  
 Use, reproduction and disclosure by the US Government is
 subject to restrictions as set forth in subparagraphs (a)
 and (c) of the Commercial Computer Software - Restricted
 Rights clause in FAR 52.227-19.
  
 Gaussian, Inc.
 340 Quinnipiac St., Bldg. 40, Wallingford CT 06492
  
  
 ---------------------------------------------------------------
 Warning -- This program may not be used in any manner that
 competes with the business of Gaussian, Inc. or will provide
 assistance to any competitor of Gaussian, Inc.  The licensee
 of this program is prohibited from giving any competitor of
 Gaussian, Inc. access to this program.  By using this program,
 the user acknowledges that Gaussian, Inc. is engaged in the
 business of creating and licensing software in the field of
 computational chemistry and represents and warrants to the
 licensee that it is not a competitor of Gaussian, Inc. and that
 it will not use this program in any manner prohibited above.
 ---------------------------------------------------------------
  

 Cite this work as:
 Gaussian 16, Revision B.01,
 M. J. Frisch, G. W. Trucks, H. B. Schlegel, G. E. Scuseria, 
 M. A. Robb, J. R. Cheeseman, G. Scalmani, V. Barone, 
 G. A. Petersson, H. Nakatsuji, X. Li, M. Caricato, A. V. Marenich, 
 J. Bloino, B. G. Janesko, R. Gomperts, B. Mennucci, H. P. Hratchian, 
 J. V. Ortiz, A. F. Izmaylov, J. L. Sonnenberg, D. Williams-Young, 
 F. Ding, F. Lipparini, F. Egidi, J. Goings, B. Peng, A. Petrone, 
 T. Henderson, D. Ranasinghe, V. G. Zakrzewski, J. Gao, N. Rega, 
 G. Zheng, W. Liang, M. Hada, M. Ehara, K. Toyota, R. Fukuda, 
 J. Hasegawa, M. Ishida, T. Nakajima, Y. Honda, O. Kitao, H. Nakai, 
 T. Vreven, K. Throssell, J. A. Montgomery, Jr., J. E. Peralta, 
 F. Ogliaro, M. J. Bearpark, J. J. Heyd, E. N. Brothers, K. N. Kudin, 
 V. N. Staroverov, T. A. Keith, R. Kobayashi, J. Normand, 
 K. Raghavachari, A. P. Rendell, J. C. Burant, S. S. Iyengar, 
 J. Tomasi, M. Cossi, J. M. Millam, M. Klene, C. Adamo, R. Cammi, 
 J. W. Ochterski, R. L. Martin, K. Morokuma, O. Farkas, 
 J. B. Foresman, and D. J. Fox, Gaussian, Inc., Wallingford CT, 2016.
 
 ******************************************
 Gaussian 16:  EM64L-G16RevB.01 20-Dec-2017
                 9-Jul-2026 
 ******************************************
 %nproc=64
 Will use up to   64 processors via shared memory.
 -----------------------------------------
 #force b3lyp/3-21G* Geom=PrintInputOrient
 -----------------------------------------
 1/10=7,30=1,38=1/1,3;
 2/9=2000,12=2,17=6,18=5,40=1/2;
 3/5=5,7=1,11=2,25=1,30=1,71=1,74=-5/1,2,3;
 4//1;
 5/5=2,38=5/2;
 6/7=2,8=2,9=2,10=2,28=1/1;
 7/29=1/1,2,3,16;
 1/10=7,30=1/3;
 99//99;
 -------------------------------------------------
 Generated by MDDatasetMaker (Author: Jinzhe Zeng)
 -------------------------------------------------
 Symbolic Z-matrix:
 Charge =  0 Multiplicity = 3
 H                     11.7371   1.55403   8.93911 
 O                     12.3531   1.3022    7.90543 
 C                     10.7717   0.76967   8.0567 
 H                     13.2613   2.0401    8.98316 
 O                     10.9017   1.11571   9.97664 
 

 GradGradGradGradGradGradGradGradGradGradGradGradGradGradGradGradGradGrad
 Berny optimization.
 Initialization pass.
 Trust Radius=3.00D-01 FncErr=1.00D-07 GrdErr=1.00D-07 EigMax=2.50D+02 EigMin=1.00D-04
 Number of steps in this run=      2 maximum allowed number of steps=      2.
 GradGradGradGradGradGradGradGradGradGradGradGradGradGradGradGradGradGrad

                          Input orientation:                          
 ---------------------------------------------------------------------
 Center     Atomic      Atomic             Coordinates (Angstroms)
 Number     Number       Type             X           Y           Z
 ---------------------------------------------------------------------
      1          1           0       11.737100    1.554030    8.939110
      2          8           0       12.353100    1.302200    7.905430
      3          6           0       10.771700    0.769670    8.056700
      4          1           0       13.261300    2.040100    8.983160
      5          8           0       10.901700    1.115710    9.976640
 ---------------------------------------------------------------------
                    Distance matrix (angstroms):
                    1          2          3          4          5
     1  H    0.000000
     2  O    1.229377   0.000000
     3  C    1.525079   1.675499   0.000000
     4  H    1.600434   1.590857   2.944559   0.000000
     5  O    1.402315   2.535991   1.955202   2.721987   0.000000
 Stoichiometry    CH2O2(3)
 Framework group  C1[X(CH2O2)]
 Deg. of freedom     9
 Full point group                 C1      NOp   1
 Largest Abelian subgroup         C1      NOp   1
 Largest concise Abelian subgroup C1      NOp   1
                         Standard orientation:                         
 ---------------------------------------------------------------------
 Center     Atomic      Atomic             Coordinates (Angstroms)
 Number     Number       Type             X           Y           Z
 ---------------------------------------------------------------------
      1          1           0        0.012944   -0.465278    0.241621
      2          8           0        1.181499   -0.209427   -0.041907
      3          6           0        0.071850    1.043893    0.029962
      4          1           0        0.928228   -1.772084    0.115515
      5          8           0       -1.353033   -0.293822   -0.025206
 ---------------------------------------------------------------------
 Rotational constants (GHZ):          27.3618912           9.5867297           7.1217902
 Standard basis: 3-21G* (6D, 7F)
 There are    31 symmetry adapted cartesian basis functions of A   symmetry.
 There are    31 symmetry adapted basis functions of A   symmetry.
    31 basis functions,    51 primitive gaussians,    31 cartesian basis functions
    13 alpha electrons       11 beta electrons
       nuclear repulsion energy        55.6755020789 Hartrees.
 NAtoms=    5 NActive=    5 NUniq=    5 SFac= 1.00D+00 NAtFMM=   60 NAOKFM=F Big=F
 Integral buffers will be    131072 words long.
 Raffenetti 2 integral format.
 Two-electron integral symmetry is turned on.
 One-electron integrals computed using PRISM.
 PrsmSu:  requested number of processors reduced to:  31 ShMem   1 Linda.
 NBasis=    31 RedAO= T EigKep=  6.92D-02  NBF=    31
 NBsUse=    31 1.00D-06 EigRej= -1.00D+00 NBFU=    31
 ExpMin= 1.83D-01 ExpMax= 3.22D+02 ExpMxC= 3.22D+02 IAcc=3 IRadAn=         5 AccDes= 0.00D+00
 Harris functional with IExCor=  402 and IRadAn=       5 diagonalized for initial guess.
 HarFok:  IExCor=  402 AccDes= 0.00D+00 IRadAn=         5 IDoV= 1 UseB2=F ITyADJ=14
 ICtDFT=  3500011 ScaDFX=  1.000000  1.000000  1.000000  1.000000
 FoFCou: FMM=F IPFlag=           0 FMFlag=      100000 FMFlg1=           0
         NFxFlg=           0 DoJE=T BraDBF=F KetDBF=T FulRan=T
         wScrn=  0.000000 ICntrl=       500 IOpCl=  0 I1Cent=   200000004 NGrid=           0
         NMat0=    1 NMatS0=      1 NMatT0=    0 NMatD0=    1 NMtDS0=    0 NMtDT0=    0
 Petite list used in FoFCou.
 Initial guess <Sx>= 0.0000 <Sy>= 0.0000 <Sz>= 1.0000 <S**2>= 2.0000 S= 1.0000
 Keep R1 and R2 ints in memory in canonical form, NReq=55524807.
 Requested convergence on RMS density matrix=1.00D-08 within 128 cycles.
 Requested convergence on MAX density matrix=1.00D-06.
 Requested convergence on             energy=1.00D-06.
 No special actions if energy rises.
 Integral accuracy reduced to 1.0D-05 until final iterations.
 Initial convergence to 1.0D-05 achieved.  Increase integral accuracy.
 SCF Done:  E(UB3LYP) =  -188.277626858     A.U. after   28 cycles
            NFock= 28  Conv=0.63D-08     -V/T= 2.0105
 <Sx>= 0.0000 <Sy>= 0.0000 <Sz>= 1.0000 <S**2>= 2.0826 S= 1.0273
 <L.S>= 0.000000000000E+00
 Annihilation of the first spin contaminant:
 S**2 before annihilation     2.0826,   after     2.0017

 **********************************************************************

            Population analysis using the SCF Density.

 **********************************************************************

 Orbital symmetries:
 Alpha Orbitals:
       Occupied  (A) (A) (A) (A) (A) (A) (A) (A) (A) (A) (A) (A)
                 (A)
       Virtual   (A) (A) (A) (A) (A) (A) (A) (A) (A) (A) (A) (A)
                 (A) (A) (A) (A) (A) (A)
 Beta  Orbitals:
       Occupied  (A) (A) (A) (A) (A) (A) (A) (A) (A) (A) (A)
       Virtual   (A) (A) (A) (A) (A) (A) (A) (A) (A) (A) (A) (A)
                 (A) (A) (A) (A) (A) (A) (A) (A)
 The electronic state is 3-A.
 Alpha  occ. eigenvalues --  -19.13726 -19.13209 -10.31830  -1.04175  -0.96945
 Alpha  occ. eigenvalues --   -0.61784  -0.49983  -0.42586  -0.41434  -0.36470
 Alpha  occ. eigenvalues --   -0.34997  -0.33981  -0.23265
 Alpha virt. eigenvalues --   -0.15750  -0.08060   0.01569   0.12793   0.65800
 Alpha virt. eigenvalues --    0.69359   0.72987   0.84825   0.88431   1.18722
 Alpha virt. eigenvalues --    1.32975   1.38566   1.49798   1.52914   1.60468
 Alpha virt. eigenvalues --    1.63302   2.34597   2.80720
  Beta  occ. eigenvalues --  -19.13103 -19.11037 -10.31265  -1.02872  -0.89918
  Beta  occ. eigenvalues --   -0.59504  -0.48867  -0.39692  -0.35510  -0.31656
  Beta  occ. eigenvalues --   -0.31448
  Beta virt. eigenvalues --   -0.17459  -0.11009  -0.08899  -0.06171   0.03173
  Beta virt. eigenvalues --    0.13878   0.68938   0.70199   0.72914   0.87682
  Beta virt. eigenvalues --    0.95635   1.20521   1.39258   1.43881   1.52572
  Beta virt. eigenvalues --    1.55836   1.60699   1.64015   2.38321   2.83053
          Condensed to atoms (all electrons):
               1          2          3          4          5
     1  H    0.541836   0.079759  -0.075010   0.008716   0.090531
     2  O    0.079759   8.181079   0.134592   0.013788  -0.029521
     3  C   -0.075010   0.134592   5.727080  -0.002219   0.090480
     4  H    0.008716   0.013788  -0.002219   0.894028  -0.001896
     5  O    0.090531  -0.029521   0.090480  -0.001896   8.037538
          Atomic-Atomic Spin Densities.
               1          2          3          4          5
     1  H   -0.024957   0.022731   0.003936  -0.020033  -0.014339
     2  O    0.022731   0.068554  -0.026935  -0.094154  -0.001035
     3  C    0.003936  -0.026935   0.385387   0.008552  -0.031160
     4  H   -0.020033  -0.094154   0.008552   0.698240  -0.000499
     5  O   -0.014339  -0.001035  -0.031160  -0.000499   1.178647
 Mulliken charges and spin densities:
               1          2
     1  H    0.354169  -0.032661
     2  O   -0.379697  -0.030839
     3  C    0.125077   0.339780
     4  H    0.087583   0.592106
     5  O   -0.187132   1.131615
 Sum of Mulliken charges =   0.00000   2.00000
 Mulliken charges and spin densities with hydrogens summed into heavy atoms:
               1          2
     2  O    0.062055   0.528605
     3  C    0.125077   0.339780
     5  O   -0.187132   1.131615
 Electronic spatial extent (au):  <R**2>=            176.8917
 Charge=              0.0000 electrons
 Dipole moment (field-independent basis, Debye):
    X=             -0.0917    Y=             -0.7087    Z=              0.3965  Tot=              0.8173
 Quadrupole moment (field-independent basis, Debye-Ang):
   XX=            -21.7676   YY=            -17.4026   ZZ=            -17.4887
   XY=             -0.4525   XZ=              0.0455   YZ=             -0.4612
 Traceless Quadrupole moment (field-independent basis, Debye-Ang):
   XX=             -2.8813   YY=              1.4837   ZZ=              1.3976
   XY=             -0.4525   XZ=              0.0455   YZ=             -0.4612
 Octapole moment (field-independent basis, Debye-Ang**2):
  XXX=             -2.0908  YYY=             -7.5492  ZZZ=             -0.5191  XYY=              0.8913
  XXY=             -0.7736  XXZ=              0.6293  XZZ=             -1.3902  YZZ=             -1.5295
  YYZ=             -0.6773  XYZ=             -0.0498
 Hexadecapole moment (field-independent basis, Debye-Ang**3):
 XXXX=           -125.8465 YYYY=            -77.0740 ZZZZ=            -13.8328 XXXY=              1.5675
 XXXZ=             -1.5875 YYYX=             -0.0464 YYYZ=             -1.1131 ZZZX=             -0.0519
 ZZZY=             -0.0606 XXYY=            -31.6245 XXZZ=            -21.4751 YYZZ=            -15.5309
 XXYZ=             -0.0133 YYXZ=              0.4562 ZZXY=              0.8648
 N-N= 5.567550207894D+01 E-N=-5.541826847946D+02  KE= 1.863240834706D+02
                          Isotropic Fermi Contact Couplings
        Atom                 a.u.       MegaHertz       Gauss      10(-4) cm-1
     1  H(1)              -0.00430      -9.60541      -3.42745      -3.20402
     2  O(17)              0.22823     -69.17749     -24.68425     -23.07513
     3  C(13)              0.04801      26.98869       9.63024       9.00246
     4  H(1)               0.16472     368.14580     131.36358     122.80022
     5  O(17)              0.10064     -30.50514     -10.88499     -10.17542
 --------------------------------------------------------
       Center         ----  Spin Dipole Couplings  ----
                      3XX-RR        3YY-RR        3ZZ-RR
 --------------------------------------------------------
     1   Atom        0.066332     -0.016089     -0.050243
     2   Atom        0.034830     -0.185492      0.150662
     3   Atom       -0.111438     -0.333011      0.444449
     4   Atom        0.017284     -0.021225      0.003941
     5   Atom       -1.189278     -1.156154      2.345431
 --------------------------------------------------------
                        XY            XZ            YZ
 --------------------------------------------------------
     1   Atom       -0.033420      0.019354      0.001967
     2   Atom        0.184306      0.250751      0.870645
     3   Atom       -0.129488     -0.400790      0.234221
     4   Atom       -0.014585      0.002613      0.002542
     5   Atom       -0.093788     -1.291650      1.091427
 --------------------------------------------------------


 ---------------------------------------------------------------------------------
              Anisotropic Spin Dipole Couplings in Principal Axis System
 ---------------------------------------------------------------------------------

       Atom             a.u.   MegaHertz   Gauss  10(-4) cm-1        Axes

              Baa    -0.0551   -29.404   -10.492    -9.808 -0.2150 -0.2320  0.9487
     1 H(1)   Bbb    -0.0254   -13.576    -4.844    -4.529  0.2739  0.9181  0.2866
              Bcc     0.0806    42.981    15.337    14.337  0.9374 -0.3214  0.1339
 
              Baa    -0.9045    65.448    23.353    21.831  0.0198  0.7689 -0.6391
     2 O(17)  Bbb    -0.0678     4.907     1.751     1.637  0.9490 -0.2156 -0.2300
              Bcc     0.9723   -70.355   -25.104   -23.468  0.3147  0.6020  0.7339
 
              Baa    -0.4013   -53.850   -19.215   -17.963  0.1789  0.9667 -0.1829
     3 C(13)  Bbb    -0.3208   -43.048   -15.360   -14.359  0.8745 -0.0710  0.4798
              Bcc     0.7221    96.898    34.576    32.322 -0.4508  0.2458  0.8581
 
              Baa    -0.0265   -14.124    -5.040    -4.711  0.3201  0.9414 -0.1062
     4 H(1)   Bbb     0.0041     2.206     0.787     0.736 -0.0529  0.1297  0.9901
              Bcc     0.0223    11.918     4.253     3.975  0.9459 -0.3114  0.0913
 
              Baa    -1.7784   128.685    45.918    42.925  0.7425 -0.5525  0.3788
     5 O(17)  Bbb    -1.2608    91.228    32.552    30.430  0.6047  0.7961 -0.0243
              Bcc     3.0392  -219.913   -78.470   -73.355 -0.2881  0.2471  0.9252
 

 ---------------------------------------------------------------------------------

 PrsmSu:  requested number of processors reduced to:  31 ShMem   1 Linda.
 Calling FoFJK, ICntrl=      2127 FMM=F ISym2X=0 I1Cent= 0 IOpClX= 1 NMat=1 NMatS=1 NMatT=0.
 ***** Axes restored to original set *****
 -------------------------------------------------------------------
 Center     Atomic                   Forces (Hartrees/Bohr)
 Number     Number              X              Y              Z
 -------------------------------------------------------------------
      1        1           0.019174700    0.007151003    0.029356575
      2        8          -0.070944006   -0.025089675    0.033764714
      3        6           0.051010385    0.019818792   -0.001012383
      4        1          -0.005679874    0.002241339   -0.016491857
      5        8           0.006438795   -0.004121459   -0.045617050
 -------------------------------------------------------------------
 Cartesian Forces:  Max     0.070944006 RMS     0.030030772

 GradGradGradGradGradGradGradGradGradGradGradGradGradGradGradGradGradGrad
 Berny optimization.
 Search for a local minimum.
 Step number   1 out of a maximum of    2
 All quantities printed in internal units (Hartrees-Bohrs-Radians)
 Second derivative matrix not updated -- first step.
 The second derivative matrix:
                          X1        Y1        Z1        X2        Y2
           X1           0.07588
           Y1          -0.01192   0.01623
           Z1          -0.08679   0.04410   0.16393
           X2          -0.07677   0.01139   0.08639   0.24905
           Y2           0.01906  -0.01198  -0.04088   0.03883   0.02985
           Z2           0.10267  -0.03466  -0.15677  -0.11940   0.03188
           X3           0.00089   0.00053   0.00040  -0.17228  -0.05790
           Y3          -0.00714  -0.00425  -0.00322  -0.05023  -0.01786
           Z3          -0.01588  -0.00944  -0.00716   0.03301   0.00900
           X4           0.00000   0.00000   0.00000   0.00000   0.00000
           Y4           0.00000   0.00000   0.00000   0.00000   0.00000
           Z4           0.00000   0.00000   0.00000   0.00000   0.00000
           X5           0.00000   0.00000   0.00000   0.00000   0.00000
           Y5           0.00000   0.00000   0.00000   0.00000   0.00000
           Z5           0.00000   0.00000   0.00000   0.00000   0.00000
                          Z2        X3        Y3        Z3        X4
           Z2           0.16441
           X3           0.01673   0.17139
           Y3           0.00279   0.05737   0.02211
           Z3          -0.00764  -0.01713   0.00044   0.01481
           X4           0.00000   0.00000   0.00000   0.00000   1.00000
           Y4           0.00000   0.00000   0.00000   0.00000   0.00000
           Z4           0.00000   0.00000   0.00000   0.00000   0.00000
           X5           0.00000   0.00000   0.00000   0.00000   0.00000
           Y5           0.00000   0.00000   0.00000   0.00000   0.00000
           Z5           0.00000   0.00000   0.00000   0.00000   0.00000
                          Y4        Z4        X5        Y5        Z5
           Y4           1.00000
           Z4           0.00000   1.00000
           X5           0.00000   0.00000   1.00000
           Y5           0.00000   0.00000   0.00000   1.00000
           Z5           0.00000   0.00000   0.00000   0.00000   1.00000
 ITU=  0
     Eigenvalues ---    0.03334   0.04541   0.17624   0.29837   0.48118
     Eigenvalues ---    0.65929   0.68501   0.91922   1.00000
 Quadratic step=6.982D-01 exceeds max=3.000D-01 adjusted using Lamda=-9.388D-02.
 Angle between NR and scaled steps=  23.62 degrees.
 Angle between quadratic step and forces=  33.23 degrees.
 Linear search not attempted -- first point.
 B after Tr=     0.031733   -0.061539   -0.077823
         Rot=    0.999998    0.001386    0.001487   -0.000164 Ang=   0.23 deg.
 Variable       Old X    -DE/DX   Delta X   Delta X   Delta X     New X
                                 (Linear)    (Quad)   (Total)
    X1       22.17990   0.01917   0.00000   0.12784   0.10775  22.28765
    Y1        2.93669   0.00715   0.00000   0.05127   0.04444   2.98113
    Z1       16.89247   0.02936   0.00000   0.17697   0.15704  17.04951
    X2       23.34398  -0.07094   0.00000  -0.14447  -0.15815  23.18583
    Y2        2.46080  -0.02509   0.00000  -0.04103  -0.05337   2.40743
    Z2       14.93910   0.03376   0.00000   0.03444   0.01874  14.95784
    X3       20.35556   0.05101   0.00000   0.10178   0.08777  20.44333
    Y3        1.45447   0.01982   0.00000   0.01658   0.00393   1.45840
    Z3       15.22496  -0.00101   0.00000  -0.03372  -0.05494  15.17002
    X4       25.06023  -0.00568   0.00000  -0.00547  -0.02550  25.03472
    Y4        3.85523   0.00224   0.00000   0.00822   0.00197   3.85720
    Z4       16.97571  -0.01649   0.00000  -0.02519  -0.03939  16.93632
    X5       20.60123   0.00644   0.00000   0.01307  -0.01186  20.58936
    Y5        2.10839  -0.00412   0.00000   0.00564   0.00303   2.11142
    Z5       18.85312  -0.04562   0.00000  -0.05889  -0.08146  18.77166
         Item               Value     Threshold  Converged?
 Maximum Force            0.070944     0.000450     NO 
 RMS     Force            0.030031     0.000300     NO 
 Maximum Displacement     0.158150     0.001800     NO 
 RMS     Displacement     0.075800     0.001200     NO 
 Predicted change in Energy=-1.654987D-02
 GradGradGradGradGradGradGradGradGradGradGradGradGradGradGradGradGradGrad

 1\1\GINC-H08R06\Force\UB3LYP\3-21G*\C1H2O2(3)\ACKGYDJ0BD\09-Jul-2026\0
 \\#force b3lyp/3-21G* Geom=PrintInputOrient\\Generated by MDDatasetMak
 er (Author: Jinzhe Zeng)\\0,3\H,11.7371,1.55403,8.93911\O,12.3531,1.30
 22,7.90543\C,10.7717,0.76967,8.0567\H,13.2613,2.0401,8.98316\O,10.9017
 ,1.11571,9.97664\\Version=EM64L-G16RevB.01\State=3-A\HF=-188.2776269\S
 2=2.082624\S2-1=0.\S2A=2.001716\RMSD=6.275e-09\RMSF=3.003e-02\Dipole=0
 .1202416,0.2494257,0.1634663\Quadrupole=0.0390116,1.2997976,-1.3388092
 ,0.1351973,1.3518997,0.2949876\PG=C01 [X(C1H2O2)]\\@


 TERRY FORSTER, PORTLY ATLANTA BRAVES RELIEVER,
 ANNOUNCING THAT HE WAS GOING TO A FAT FARM:
 "A WAIST IS A TERRIBLE THING TO MIND."
 Job cpu time:       0 days  0 hours  3 minutes  7.4 seconds.
 Elapsed time:       0 days  0 hours  0 minutes  3.7 seconds.
 File lengths (MBytes):  RWF=      6 Int=      0 D2E=      0 Chk=      1 Scr=      1
 Normal termination of Gaussian 16 at Thu Jul  9 10:28:24 2026.
