 Entering Gaussian System, Link 0=g16
 Input=loop1_O11_02.gjf
 Output=loop1_O11_02.log
 Initial command:
 /work/home/ackgydj0bd/apprepo/gaussian/16b.01-none_v1.3/app/g16/l1.exe "/work/home/ackgydj0bd/apprepo/gaussian/16b.01-none_v1.3/app/g16/scratch/Gau-36577.inp" -scrdir="/work/home/ackgydj0bd/apprepo/gaussian/16b.01-none_v1.3/app/g16/scratch/"
 Entering Link 1 = /work/home/ackgydj0bd/apprepo/gaussian/16b.01-none_v1.3/app/g16/l1.exe PID=     36578.
  
 Copyright (c) 1988-2017, Gaussian, Inc.  All Rights Reserved.
  
 This is part of the Gaussian(R) 16 program.  It is based on
 the Gaussian(R) 09 system (copyright 2009, Gaussian, Inc.),
 the Gaussian(R) 03 system (copyright 2003, Gaussian, Inc.),
 the Gaussian(R) 98 system (copyright 1998, Gaussian, Inc.),
 the Gaussian(R) 94 system (copyright 1995, Gaussian, Inc.),
 the Gaussian 92(TM) system (copyright 1992, Gaussian, Inc.),
 the Gaussian 90(TM) system (copyright 1990, Gaussian, Inc.),
 the Gaussian 88(TM) system (copyright 1988, Gaussian, Inc.),
 the Gaussian 86(TM) system (copyright 1986, Carnegie Mellon
 University), and the Gaussian 82(TM) system (copyright 1983,
 Carnegie Mellon University). Gaussian is a federally registered
 trademark of Gaussian, Inc.
  
 This software contains proprietary and confidential information,
 including trade secrets, belonging to Gaussian, Inc.
  
 This software is provided under written license and may be
 used, copied, transmitted, or stored only in accord with that
 written license.
  
 The following legend is applicable only to US Government
 contracts under FAR:
  
                    RESTRICTED RIGHTS LEGEND
  
 Use, reproduction and disclosure by the US Government is
 subject to restrictions as set forth in subparagraphs (a)
 and (c) of the Commercial Computer Software - Restricted
 Rights clause in FAR 52.227-19.
  
 Gaussian, Inc.
 340 Quinnipiac St., Bldg. 40, Wallingford CT 06492
  
  
 ---------------------------------------------------------------
 Warning -- This program may not be used in any manner that
 competes with the business of Gaussian, Inc. or will provide
 assistance to any competitor of Gaussian, Inc.  The licensee
 of this program is prohibited from giving any competitor of
 Gaussian, Inc. access to this program.  By using this program,
 the user acknowledges that Gaussian, Inc. is engaged in the
 business of creating and licensing software in the field of
 computational chemistry and represents and warrants to the
 licensee that it is not a competitor of Gaussian, Inc. and that
 it will not use this program in any manner prohibited above.
 ---------------------------------------------------------------
  

 Cite this work as:
 Gaussian 16, Revision B.01,
 M. J. Frisch, G. W. Trucks, H. B. Schlegel, G. E. Scuseria, 
 M. A. Robb, J. R. Cheeseman, G. Scalmani, V. Barone, 
 G. A. Petersson, H. Nakatsuji, X. Li, M. Caricato, A. V. Marenich, 
 J. Bloino, B. G. Janesko, R. Gomperts, B. Mennucci, H. P. Hratchian, 
 J. V. Ortiz, A. F. Izmaylov, J. L. Sonnenberg, D. Williams-Young, 
 F. Ding, F. Lipparini, F. Egidi, J. Goings, B. Peng, A. Petrone, 
 T. Henderson, D. Ranasinghe, V. G. Zakrzewski, J. Gao, N. Rega, 
 G. Zheng, W. Liang, M. Hada, M. Ehara, K. Toyota, R. Fukuda, 
 J. Hasegawa, M. Ishida, T. Nakajima, Y. Honda, O. Kitao, H. Nakai, 
 T. Vreven, K. Throssell, J. A. Montgomery, Jr., J. E. Peralta, 
 F. Ogliaro, M. J. Bearpark, J. J. Heyd, E. N. Brothers, K. N. Kudin, 
 V. N. Staroverov, T. A. Keith, R. Kobayashi, J. Normand, 
 K. Raghavachari, A. P. Rendell, J. C. Burant, S. S. Iyengar, 
 J. Tomasi, M. Cossi, J. M. Millam, M. Klene, C. Adamo, R. Cammi, 
 J. W. Ochterski, R. L. Martin, K. Morokuma, O. Farkas, 
 J. B. Foresman, and D. J. Fox, Gaussian, Inc., Wallingford CT, 2016.
 
 ******************************************
 Gaussian 16:  EM64L-G16RevB.01 20-Dec-2017
                 9-Jul-2026 
 ******************************************
 %nproc=64
 Will use up to   64 processors via shared memory.
 -----------------------------------------
 #force b3lyp/3-21G* Geom=PrintInputOrient
 -----------------------------------------
 1/10=7,30=1,38=1/1,3;
 2/9=2000,12=2,17=6,18=5,40=1/2;
 3/5=5,7=1,11=2,25=1,30=1,71=1,74=-5/1,2,3;
 4//1;
 5/5=2,38=5/2;
 6/7=2,8=2,9=2,10=2,28=1/1;
 7/29=1/1,2,3,16;
 1/10=7,30=1/3;
 99//99;
 -------------------------------------------------
 Generated by MDDatasetMaker (Author: Jinzhe Zeng)
 -------------------------------------------------
 Symbolic Z-matrix:
 Charge =  0 Multiplicity = 1
 C                     13.3131   0.01857   22.6173 
 O                     14.8086  -0.00382   21.6734 
 O                     14.9847  -0.0071    20.319 
 

 GradGradGradGradGradGradGradGradGradGradGradGradGradGradGradGradGradGrad
 Berny optimization.
 Initialization pass.
 Trust Radius=3.00D-01 FncErr=1.00D-07 GrdErr=1.00D-07 EigMax=2.50D+02 EigMin=1.00D-04
 Number of steps in this run=      2 maximum allowed number of steps=      2.
 GradGradGradGradGradGradGradGradGradGradGradGradGradGradGradGradGradGrad

                          Input orientation:                          
 ---------------------------------------------------------------------
 Center     Atomic      Atomic             Coordinates (Angstroms)
 Number     Number       Type             X           Y           Z
 ---------------------------------------------------------------------
      1          6           0       13.313100    0.018570   22.617300
      2          8           0       14.808600   -0.003820   21.673400
      3          8           0       14.984700   -0.007100   20.319000
 ---------------------------------------------------------------------
                    Distance matrix (angstroms):
                    1          2          3
     1  C    0.000000
     2  O    1.768606   0.000000
     3  O    2.842022   1.365804   0.000000
 Stoichiometry    CO2
 Framework group  CS[SG(CO2)]
 Deg. of freedom     3
 Full point group                 CS      NOp   2
 Largest Abelian subgroup         CS      NOp   2
 Largest concise Abelian subgroup C1      NOp   1
                         Standard orientation:                         
 ---------------------------------------------------------------------
 Center     Atomic      Atomic             Coordinates (Angstroms)
 Number     Number       Type             X           Y           Z
 ---------------------------------------------------------------------
      1          6           0        1.623320   -0.285460    0.000000
      2          8           0        0.000000    0.416539    0.000000
      3          8           0       -1.217490   -0.202444    0.000000
 ---------------------------------------------------------------------
 Rotational constants (GHZ):         115.9873810           9.1252743           8.4597091
 Standard basis: 3-21G* (6D, 7F)
 There are    21 symmetry adapted cartesian basis functions of A'  symmetry.
 There are     6 symmetry adapted cartesian basis functions of A"  symmetry.
 There are    21 symmetry adapted basis functions of A'  symmetry.
 There are     6 symmetry adapted basis functions of A"  symmetry.
    27 basis functions,    45 primitive gaussians,    27 cartesian basis functions
    11 alpha electrons       11 beta electrons
       nuclear repulsion energy        48.0959817297 Hartrees.
 NAtoms=    3 NActive=    3 NUniq=    3 SFac= 1.00D+00 NAtFMM=   60 NAOKFM=F Big=F
 Integral buffers will be    131072 words long.
 Raffenetti 2 integral format.
 Two-electron integral symmetry is turned on.
 One-electron integrals computed using PRISM.
 PrsmSu:  requested number of processors reduced to:  31 ShMem   1 Linda.
 NBasis=    27 RedAO= T EigKep=  7.38D-02  NBF=    21     6
 NBsUse=    27 1.00D-06 EigRej= -1.00D+00 NBFU=    21     6
 ExpMin= 1.96D-01 ExpMax= 3.22D+02 ExpMxC= 3.22D+02 IAcc=3 IRadAn=         5 AccDes= 0.00D+00
 Harris functional with IExCor=  402 and IRadAn=       5 diagonalized for initial guess.
 HarFok:  IExCor=  402 AccDes= 0.00D+00 IRadAn=         5 IDoV= 1 UseB2=F ITyADJ=14
 ICtDFT=  3500011 ScaDFX=  1.000000  1.000000  1.000000  1.000000
 FoFCou: FMM=F IPFlag=           0 FMFlag=      100000 FMFlg1=           0
         NFxFlg=           0 DoJE=T BraDBF=F KetDBF=T FulRan=T
         wScrn=  0.000000 ICntrl=       500 IOpCl=  0 I1Cent=   200000004 NGrid=           0
         NMat0=    1 NMatS0=      1 NMatT0=    0 NMatD0=    1 NMtDS0=    0 NMtDT0=    0
 Petite list used in FoFCou.
 Initial guess orbital symmetries:
       Occupied  (A') (A') (A') (A') (A') (A') (A') (A") (A') (A')
                 (A")
       Virtual   (A') (A") (A') (A') (A') (A") (A') (A') (A") (A')
                 (A') (A") (A') (A') (A') (A')
 The electronic state of the initial guess is 1-A'.
 Keep R1 ints in memory in symmetry-blocked form, NReq=55332302.
 Requested convergence on RMS density matrix=1.00D-08 within 128 cycles.
 Requested convergence on MAX density matrix=1.00D-06.
 Requested convergence on             energy=1.00D-06.
 No special actions if energy rises.
 Integral accuracy reduced to 1.0D-05 until final iterations.
 EnCoef did   100 forward-backward iterations
 EnCoef did   100 forward-backward iterations
 EnCoef did     2 forward-backward iterations
 Initial convergence to 1.0D-05 achieved.  Increase integral accuracy.
 SCF Done:  E(RB3LYP) =  -187.130596122     A.U. after   21 cycles
            NFock= 21  Conv=0.41D-08     -V/T= 2.0108

 **********************************************************************

            Population analysis using the SCF Density.

 **********************************************************************

 Orbital symmetries:
       Occupied  (A') (A') (A') (A') (A') (A') (A') (A") (A') (A')
                 (A")
       Virtual   (A') (A") (A') (A') (A') (A") (A') (A') (A") (A')
                 (A') (A") (A') (A') (A') (A')
 The electronic state is 1-A'.
 Alpha  occ. eigenvalues --  -19.21214 -19.10896 -10.33308  -1.15342  -0.83260
 Alpha  occ. eigenvalues --   -0.60277  -0.46177  -0.44516  -0.43756  -0.26095
 Alpha  occ. eigenvalues --   -0.25635
 Alpha virt. eigenvalues --   -0.17694  -0.15843  -0.06360   0.11199   0.65873
 Alpha virt. eigenvalues --    0.66206   0.68675   1.06503   1.32488   1.34782
 Alpha virt. eigenvalues --    1.43269   1.50221   1.54705   1.73590   2.34426
 Alpha virt. eigenvalues --    2.78316
          Condensed to atoms (all electrons):
               1          2          3
     1  C    5.654201   0.163239  -0.022460
     2  O    0.163239   7.812467   0.114374
     3  O   -0.022460   0.114374   8.023027
 Mulliken charges:
               1
     1  C    0.205020
     2  O   -0.090080
     3  O   -0.114941
 Sum of Mulliken charges =   0.00000
 Mulliken charges with hydrogens summed into heavy atoms:
               1
     1  C    0.205020
     2  O   -0.090080
     3  O   -0.114941
 Electronic spatial extent (au):  <R**2>=            142.2715
 Charge=              0.0000 electrons
 Dipole moment (field-independent basis, Debye):
    X=              1.6426    Y=             -0.2850    Z=              0.0000  Tot=              1.6671
 Quadrupole moment (field-independent basis, Debye-Ang):
   XX=            -16.3667   YY=            -15.1960   ZZ=            -16.3060
   XY=             -0.2309   XZ=              0.0000   YZ=              0.0000
 Traceless Quadrupole moment (field-independent basis, Debye-Ang):
   XX=             -0.4105   YY=              0.7602   ZZ=             -0.3498
   XY=             -0.2309   XZ=              0.0000   YZ=              0.0000
 Octapole moment (field-independent basis, Debye-Ang**2):
  XXX=             -9.5578  YYY=              0.7752  ZZZ=              0.0000  XYY=             -1.5466
  XXY=              0.6927  XXZ=              0.0000  XZZ=             -4.5612  YZZ=              0.7662
  YYZ=              0.0000  XYZ=              0.0000
 Hexadecapole moment (field-independent basis, Debye-Ang**3):
 XXXX=           -152.7534 YYYY=            -19.1918 ZZZZ=            -12.8129 XXXY=              6.4011
 XXXZ=              0.0000 YYYX=              2.9573 YYYZ=              0.0000 ZZZX=              0.0000
 ZZZY=              0.0000 XXYY=            -25.4509 XXZZ=            -28.6983 YYZZ=             -5.4264
 XXYZ=              0.0000 YYXZ=              0.0000 ZZXY=              1.8081
 N-N= 4.809598172970D+01 E-N=-5.365526610220D+02  KE= 1.851384190040D+02
 Symmetry A'   KE= 1.768292101485D+02
 Symmetry A"   KE= 8.309208855555D+00
 PrsmSu:  requested number of processors reduced to:  31 ShMem   1 Linda.
 Calling FoFJK, ICntrl=      2127 FMM=F ISym2X=1 I1Cent= 0 IOpClX= 0 NMat=1 NMatS=1 NMatT=0.
 ***** Axes restored to original set *****
 -------------------------------------------------------------------
 Center     Atomic                   Forces (Hartrees/Bohr)
 Number     Number              X              Y              Z
 -------------------------------------------------------------------
      1        6           0.089310099   -0.001337272   -0.056675226
      2        8          -0.088961099    0.001332107    0.056571433
      3        8          -0.000349001    0.000005165    0.000103793
 -------------------------------------------------------------------
 Cartesian Forces:  Max     0.089310099 RMS     0.049784507

 GradGradGradGradGradGradGradGradGradGradGradGradGradGradGradGradGradGrad
 Berny optimization.
 Search for a local minimum.
 Step number   1 out of a maximum of    2
 All quantities printed in internal units (Hartrees-Bohrs-Radians)
 Second derivative matrix not updated -- first step.
 The second derivative matrix:
                          X1        Y1        Z1        X2        Y2
           X1           0.11440
           Y1           0.01294   0.99981
           Z1          -0.05795   0.00036   0.05895
           X2          -0.12952   0.00191   0.03364   0.19058
           Y2           0.00193  -0.00003  -0.00052   0.01181   0.99983
           Z2           0.05595  -0.00085  -0.06211  -0.09308   0.00114
           X3           0.01534  -0.00021   0.02430  -0.06084   0.00091
           Y3          -0.00022   0.00000  -0.00035   0.00092  -0.00001
           Z3           0.00199  -0.00003   0.00316   0.05943  -0.00114
                          Z2        X3        Y3        Z3
           Z2           0.57520
           X3           0.03712   0.04572
           Y3          -0.00081   0.01394   0.99980
           Z3          -0.51309  -0.06143   0.00065   0.50993
 ITU=  0
     Eigenvalues ---    0.11331   0.29756   1.08182
 Quadratic step=5.636D-01 exceeds max=3.000D-01 adjusted using Lamda=-1.914D-01.
 Angle between NR and scaled steps=  13.01 degrees.
 Angle between quadratic step and forces=  17.74 degrees.
 ClnCor:  largest displacement from symmetrization is 6.21D-17 for atom     1.
 Linear search not attempted -- first point.
 ClnCor:  largest displacement from symmetrization is 2.26D-17 for atom     3.
 B after Tr=     0.034085   -0.000511   -0.022140
         Rot=    1.000000    0.000008    0.000527    0.000000 Ang=   0.06 deg.
 Variable       Old X    -DE/DX   Delta X   Delta X   Delta X     New X
                                 (Linear)    (Quad)   (Total)
    X1       25.15811   0.08931   0.00000   0.19815   0.18730  25.34541
    Y1        0.03509  -0.00134   0.00000  -0.00298  -0.00282   0.03228
    Z1       42.74050  -0.05668   0.00000  -0.14524  -0.14066  42.59984
    X2       27.98420  -0.08896   0.00000  -0.14481  -0.15401  27.83019
    Y2       -0.00722   0.00133   0.00000   0.00216   0.00229  -0.00492
    Z2       40.95679   0.05657   0.00000   0.06803   0.07523  41.03202
    X3       28.31698  -0.00035   0.00000  -0.02680  -0.03329  28.28369
    Y3       -0.01342   0.00001   0.00000   0.00042   0.00052  -0.01290
    Z3       38.39735   0.00010   0.00000   0.05775   0.06543  38.46278
         Item               Value     Threshold  Converged?
 Maximum Force            0.089310     0.000450     NO 
 RMS     Force            0.049785     0.000300     NO 
 Maximum Displacement     0.187297     0.001800     NO 
 RMS     Displacement     0.099803     0.001200     NO 
 Predicted change in Energy=-2.995560D-02
 GradGradGradGradGradGradGradGradGradGradGradGradGradGradGradGradGradGrad

 1\1\GINC-H08R06\Force\RB3LYP\3-21G*\C1O2\ACKGYDJ0BD\09-Jul-2026\0\\#fo
 rce b3lyp/3-21G* Geom=PrintInputOrient\\Generated by MDDatasetMaker (A
 uthor: Jinzhe Zeng)\\0,1\C,13.3131,0.01857,22.6173\O,14.8086,-0.00382,
 21.6734\O,14.9847,-0.0071,20.319\\Version=EM64L-G16RevB.01\State=1-A'\
 HF=-187.1305961\RMSD=4.051e-09\RMSF=4.978e-02\Dipole=-0.4572352,0.0069
 395,0.4701934\Quadrupole=0.4477941,-0.2598874,-0.1879067,-0.0101884,0.
 343179,-0.0049885\PG=CS [SG(C1O2)]\\@


      TO SUSPECT YOUR OWN MORTALITY IS TO KNOW THE BEGINNING OF TERROR.
      TO LEARN IRREFUTABLY THAT YOU ARE MORTAL IS TO KNOW THE END
      OF TERROR.

                                                  -- JESSICA
                                                     CHILDREN OF DUNE
                                                     BY FRANK HERBERT
 Job cpu time:       0 days  0 hours  2 minutes 24.6 seconds.
 Elapsed time:       0 days  0 hours  0 minutes  3.0 seconds.
 File lengths (MBytes):  RWF=      6 Int=      0 D2E=      0 Chk=      1 Scr=      1
 Normal termination of Gaussian 16 at Thu Jul  9 10:30:08 2026.
