 Entering Gaussian System, Link 0=g16
 Input=loop1_C1111_05.gjf
 Output=loop1_C1111_05.log
 Initial command:
 /work/home/ackgydj0bd/apprepo/gaussian/16b.01-none_v1.3/app/g16/l1.exe "/work/home/ackgydj0bd/apprepo/gaussian/16b.01-none_v1.3/app/g16/scratch/Gau-248422.inp" -scrdir="/work/home/ackgydj0bd/apprepo/gaussian/16b.01-none_v1.3/app/g16/scratch/"
 Entering Link 1 = /work/home/ackgydj0bd/apprepo/gaussian/16b.01-none_v1.3/app/g16/l1.exe PID=    248423.
  
 Copyright (c) 1988-2017, Gaussian, Inc.  All Rights Reserved.
  
 This is part of the Gaussian(R) 16 program.  It is based on
 the Gaussian(R) 09 system (copyright 2009, Gaussian, Inc.),
 the Gaussian(R) 03 system (copyright 2003, Gaussian, Inc.),
 the Gaussian(R) 98 system (copyright 1998, Gaussian, Inc.),
 the Gaussian(R) 94 system (copyright 1995, Gaussian, Inc.),
 the Gaussian 92(TM) system (copyright 1992, Gaussian, Inc.),
 the Gaussian 90(TM) system (copyright 1990, Gaussian, Inc.),
 the Gaussian 88(TM) system (copyright 1988, Gaussian, Inc.),
 the Gaussian 86(TM) system (copyright 1986, Carnegie Mellon
 University), and the Gaussian 82(TM) system (copyright 1983,
 Carnegie Mellon University). Gaussian is a federally registered
 trademark of Gaussian, Inc.
  
 This software contains proprietary and confidential information,
 including trade secrets, belonging to Gaussian, Inc.
  
 This software is provided under written license and may be
 used, copied, transmitted, or stored only in accord with that
 written license.
  
 The following legend is applicable only to US Government
 contracts under FAR:
  
                    RESTRICTED RIGHTS LEGEND
  
 Use, reproduction and disclosure by the US Government is
 subject to restrictions as set forth in subparagraphs (a)
 and (c) of the Commercial Computer Software - Restricted
 Rights clause in FAR 52.227-19.
  
 Gaussian, Inc.
 340 Quinnipiac St., Bldg. 40, Wallingford CT 06492
  
  
 ---------------------------------------------------------------
 Warning -- This program may not be used in any manner that
 competes with the business of Gaussian, Inc. or will provide
 assistance to any competitor of Gaussian, Inc.  The licensee
 of this program is prohibited from giving any competitor of
 Gaussian, Inc. access to this program.  By using this program,
 the user acknowledges that Gaussian, Inc. is engaged in the
 business of creating and licensing software in the field of
 computational chemistry and represents and warrants to the
 licensee that it is not a competitor of Gaussian, Inc. and that
 it will not use this program in any manner prohibited above.
 ---------------------------------------------------------------
  

 Cite this work as:
 Gaussian 16, Revision B.01,
 M. J. Frisch, G. W. Trucks, H. B. Schlegel, G. E. Scuseria, 
 M. A. Robb, J. R. Cheeseman, G. Scalmani, V. Barone, 
 G. A. Petersson, H. Nakatsuji, X. Li, M. Caricato, A. V. Marenich, 
 J. Bloino, B. G. Janesko, R. Gomperts, B. Mennucci, H. P. Hratchian, 
 J. V. Ortiz, A. F. Izmaylov, J. L. Sonnenberg, D. Williams-Young, 
 F. Ding, F. Lipparini, F. Egidi, J. Goings, B. Peng, A. Petrone, 
 T. Henderson, D. Ranasinghe, V. G. Zakrzewski, J. Gao, N. Rega, 
 G. Zheng, W. Liang, M. Hada, M. Ehara, K. Toyota, R. Fukuda, 
 J. Hasegawa, M. Ishida, T. Nakajima, Y. Honda, O. Kitao, H. Nakai, 
 T. Vreven, K. Throssell, J. A. Montgomery, Jr., J. E. Peralta, 
 F. Ogliaro, M. J. Bearpark, J. J. Heyd, E. N. Brothers, K. N. Kudin, 
 V. N. Staroverov, T. A. Keith, R. Kobayashi, J. Normand, 
 K. Raghavachari, A. P. Rendell, J. C. Burant, S. S. Iyengar, 
 J. Tomasi, M. Cossi, J. M. Millam, M. Klene, C. Adamo, R. Cammi, 
 J. W. Ochterski, R. L. Martin, K. Morokuma, O. Farkas, 
 J. B. Foresman, and D. J. Fox, Gaussian, Inc., Wallingford CT, 2016.
 
 ******************************************
 Gaussian 16:  EM64L-G16RevB.01 20-Dec-2017
                 9-Jul-2026 
 ******************************************
 %nproc=64
 Will use up to   64 processors via shared memory.
 -----------------------------------------
 #force b3lyp/3-21G* Geom=PrintInputOrient
 -----------------------------------------
 1/10=7,30=1,38=1/1,3;
 2/9=2000,12=2,17=6,18=5,40=1/2;
 3/5=5,7=1,11=2,25=1,30=1,71=1,74=-5/1,2,3;
 4//1;
 5/5=2,38=5/2;
 6/7=2,8=2,9=2,10=2,28=1/1;
 7/29=1/1,2,3,16;
 1/10=7,30=1/3;
 99//99;
 -------------------------------------------------
 Generated by MDDatasetMaker (Author: Jinzhe Zeng)
 -------------------------------------------------
 Symbolic Z-matrix:
 Charge =  0 Multiplicity = 1
 C                     12.787    11.717    0.663 
 H                     12.719    12.422    1.466 
 H                     12.883    10.729    1.063 
 H                     11.904    11.774    0.062 
 H                     13.643    11.942    0.061 
 

 GradGradGradGradGradGradGradGradGradGradGradGradGradGradGradGradGradGrad
 Berny optimization.
 Initialization pass.
 Trust Radius=3.00D-01 FncErr=1.00D-07 GrdErr=1.00D-07 EigMax=2.50D+02 EigMin=1.00D-04
 Number of steps in this run=      2 maximum allowed number of steps=      2.
 GradGradGradGradGradGradGradGradGradGradGradGradGradGradGradGradGradGrad

                          Input orientation:                          
 ---------------------------------------------------------------------
 Center     Atomic      Atomic             Coordinates (Angstroms)
 Number     Number       Type             X           Y           Z
 ---------------------------------------------------------------------
      1          6           0       12.787000   11.717000    0.663000
      2          1           0       12.719000   12.422000    1.466000
      3          1           0       12.883000   10.729000    1.063000
      4          1           0       11.904000   11.774000    0.062000
      5          1           0       13.643000   11.942000    0.061000
 ---------------------------------------------------------------------
                    Distance matrix (angstroms):
                    1          2          3          4          5
     1  C    0.000000
     2  H    1.070728   0.000000
     3  H    1.070215   1.748014   0.000000
     4  H    1.069644   1.747955   1.747131   0.000000
     5  H    1.070404   1.748771   1.747276   1.747096   0.000000
 Stoichiometry    CH4
 Framework group  C1[X(CH4)]
 Deg. of freedom     9
 Full point group                 C1      NOp   1
 Largest Abelian subgroup         C1      NOp   1
 Largest concise Abelian subgroup C1      NOp   1
                         Standard orientation:                         
 ---------------------------------------------------------------------
 Center     Atomic      Atomic             Coordinates (Angstroms)
 Number     Number       Type             X           Y           Z
 ---------------------------------------------------------------------
      1          6           0        0.000078    0.000092    0.000074
      2          1           0        1.022284    0.183854   -0.260278
      3          1           0       -0.176055   -1.055091    0.030496
      4          1           0       -0.205503    0.423633    0.960537
      5          1           0       -0.641194    0.447053   -0.731199
 ---------------------------------------------------------------------
 Rotational constants (GHZ):         164.2876409         164.1219907         164.1013967
 Standard basis: 3-21G* (6D, 7F)
 There are    17 symmetry adapted cartesian basis functions of A   symmetry.
 There are    17 symmetry adapted basis functions of A   symmetry.
    17 basis functions,    27 primitive gaussians,    17 cartesian basis functions
     5 alpha electrons        5 beta electrons
       nuclear repulsion energy        13.6833510722 Hartrees.
 NAtoms=    5 NActive=    5 NUniq=    5 SFac= 1.00D+00 NAtFMM=   60 NAOKFM=F Big=F
 Integral buffers will be    131072 words long.
 Raffenetti 2 integral format.
 Two-electron integral symmetry is turned on.
 One-electron integrals computed using PRISM.
 PrsmSu:  requested number of processors reduced to:  31 ShMem   1 Linda.
 NBasis=    17 RedAO= T EigKep=  3.16D-02  NBF=    17
 NBsUse=    17 1.00D-06 EigRej= -1.00D+00 NBFU=    17
 ExpMin= 1.83D-01 ExpMax= 1.72D+02 ExpMxC= 1.72D+02 IAcc=3 IRadAn=         5 AccDes= 0.00D+00
 Harris functional with IExCor=  402 and IRadAn=       5 diagonalized for initial guess.
 HarFok:  IExCor=  402 AccDes= 0.00D+00 IRadAn=         5 IDoV= 1 UseB2=F ITyADJ=14
 ICtDFT=  3500011 ScaDFX=  1.000000  1.000000  1.000000  1.000000
 FoFCou: FMM=F IPFlag=           0 FMFlag=      100000 FMFlg1=           0
         NFxFlg=           0 DoJE=T BraDBF=F KetDBF=T FulRan=T
         wScrn=  0.000000 ICntrl=       500 IOpCl=  0 I1Cent=   200000004 NGrid=           0
         NMat0=    1 NMatS0=      1 NMatT0=    0 NMatD0=    1 NMtDS0=    0 NMtDT0=    0
 Petite list used in FoFCou.
 Keep R1 ints in memory in canonical form, NReq=55236554.
 Requested convergence on RMS density matrix=1.00D-08 within 128 cycles.
 Requested convergence on MAX density matrix=1.00D-06.
 Requested convergence on             energy=1.00D-06.
 No special actions if energy rises.
 Integral accuracy reduced to 1.0D-05 until final iterations.
 Initial convergence to 1.0D-05 achieved.  Increase integral accuracy.
 SCF Done:  E(RB3LYP) =  -40.3001914598     A.U. after    8 cycles
            NFock=  8  Conv=0.73D-08     -V/T= 2.0076

 **********************************************************************

            Population analysis using the SCF Density.

 **********************************************************************

 Orbital symmetries:
       Occupied  (A) (A) (A) (A) (A)
       Virtual   (A) (A) (A) (A) (A) (A) (A) (A) (A) (A) (A) (A)
 The electronic state is 1-A.
 Alpha  occ. eigenvalues --  -10.09025  -0.69699  -0.39297  -0.39287  -0.39274
 Alpha virt. eigenvalues --    0.15263   0.20181   0.20185   0.20206   0.69599
 Alpha virt. eigenvalues --    0.69618   0.69652   1.05711   1.07455   1.07462
 Alpha virt. eigenvalues --    1.07509   1.70656
          Condensed to atoms (all electrons):
               1          2          3          4          5
     1  C    5.301562   0.370480   0.370407   0.370476   0.370426
     2  H    0.370480   0.513939  -0.026735  -0.026719  -0.026655
     3  H    0.370407  -0.026735   0.514056  -0.026779  -0.026799
     4  H    0.370476  -0.026719  -0.026779   0.513796  -0.026798
     5  H    0.370426  -0.026655  -0.026799  -0.026798   0.514035
 Mulliken charges:
               1
     1  C   -0.783352
     2  H    0.195690
     3  H    0.195849
     4  H    0.196023
     5  H    0.195790
 Sum of Mulliken charges =   0.00000
 Mulliken charges with hydrogens summed into heavy atoms:
               1
     1  C    0.000000
 Electronic spatial extent (au):  <R**2>=             34.6391
 Charge=              0.0000 electrons
 Dipole moment (field-independent basis, Debye):
    X=             -0.0009    Y=             -0.0004    Z=              0.0005  Tot=              0.0011
 Quadrupole moment (field-independent basis, Debye-Ang):
   XX=             -8.1923   YY=             -8.1960   ZZ=             -8.1956
   XY=             -0.0002   XZ=             -0.0002   YZ=              0.0007
 Traceless Quadrupole moment (field-independent basis, Debye-Ang):
   XX=              0.0024   YY=             -0.0013   ZZ=             -0.0010
   XY=             -0.0002   XZ=             -0.0002   YZ=              0.0007
 Octapole moment (field-independent basis, Debye-Ang**2):
  XXX=              0.5714  YYY=             -0.7268  ZZZ=              0.3488  XYY=             -0.2375
  XXY=              0.2617  XXZ=             -0.3844  XZZ=             -0.3367  YZZ=              0.4644
  YYZ=              0.0381  XYZ=              0.0598
 Hexadecapole moment (field-independent basis, Debye-Ang**3):
 XXXX=            -14.0259 YYYY=            -13.9621 ZZZZ=            -14.1411 XXXY=              0.0862
 XXXZ=             -0.1012 YYYX=              0.1502 YYYZ=             -0.0304 ZZZX=              0.0538
 ZZZY=              0.2132 XXYY=             -4.9544 XXZZ=             -4.7710 YYZZ=             -4.8269
 XXYZ=             -0.1801 YYXZ=              0.0463 ZZXY=             -0.2370
 N-N= 1.368335107218D+01 E-N=-1.200057152664D+02  KE= 3.999781842360D+01
 PrsmSu:  requested number of processors reduced to:  31 ShMem   1 Linda.
 Calling FoFJK, ICntrl=      2127 FMM=F ISym2X=0 I1Cent= 0 IOpClX= 0 NMat=1 NMatS=1 NMatT=0.
 ***** Axes restored to original set *****
 -------------------------------------------------------------------
 Center     Atomic                   Forces (Hartrees/Bohr)
 Number     Number              X              Y              Z
 -------------------------------------------------------------------
      1        6           0.000440179    0.000124315    0.000360796
      2        1          -0.000990920    0.010635608    0.012028904
      3        1           0.001446232   -0.015240694    0.006211177
      4        1          -0.014000023    0.000935150   -0.009460415
      5        1           0.013104533    0.003545620   -0.009140462
 -------------------------------------------------------------------
 Cartesian Forces:  Max     0.015240694 RMS     0.008510009

 GradGradGradGradGradGradGradGradGradGradGradGradGradGradGradGradGradGrad
 Berny optimization.
 Search for a local minimum.
 Step number   1 out of a maximum of    2
 All quantities printed in internal units (Hartrees-Bohrs-Radians)
 Second derivative matrix not updated -- first step.
 The second derivative matrix:
                          X1        Y1        Z1        X2        Y2
           X1           0.70807
           Y1          -0.00020   0.70743
           Z1           0.00042   0.00005   0.70800
           X2          -0.08063   0.01222   0.01391   0.06035
           Y2           0.01222  -0.20596  -0.14418  -0.01307   0.19446
           Z2           0.01390  -0.14420  -0.24362  -0.01487   0.15422
           X3          -0.08173   0.02422  -0.00982   0.00035   0.00109
           Y3           0.02423  -0.32883   0.10095   0.00111  -0.01090
           Z3          -0.00982   0.10089  -0.12032   0.00265  -0.02717
           X4          -0.27934   0.01294  -0.13599   0.01278  -0.00396
           Y4           0.01289  -0.08033   0.00869  -0.02517   0.00838
           Z4          -0.13602   0.00873  -0.17212  -0.02116   0.00661
           X5          -0.26638  -0.04918   0.13148   0.00715   0.00372
           Y5          -0.04914  -0.09230   0.03448   0.02491   0.01401
           Z5           0.13152   0.03452  -0.17194   0.01947   0.01053
                          Z2        X3        Y3        Z3        X4
           Z2           0.23472
           X3          -0.00093   0.06161
           Y3           0.00966  -0.02591   0.32581
           Z3           0.02408   0.01049  -0.10795   0.10287
           X4           0.00455   0.00665   0.00202   0.00339   0.27288
           Y4          -0.00949   0.03177   0.01021   0.01760  -0.01382
           Z4          -0.00759  -0.00675  -0.00200  -0.00331   0.14543
           X5          -0.00266   0.01312  -0.00144  -0.00671  -0.01296
           Y5          -0.01019  -0.03117   0.00371   0.01664   0.00282
           Z5          -0.00759   0.00701  -0.00066  -0.00332  -0.01738
                          Y4        Z4        X5        Y5        Z5
           Y4           0.06007
           Z4          -0.00935   0.15820
           X5          -0.00567   0.01851   0.25907
           Y5           0.00167  -0.00398   0.05258   0.07291
           Z5          -0.00745   0.02483  -0.14063  -0.03694   0.15803
 ITU=  0
     Eigenvalues ---    0.11733   0.11736   0.14137   0.14143   0.14152
     Eigenvalues ---    0.37199   0.86855   0.86866   0.87013
 Angle between quadratic step and forces=   1.25 degrees.
 Linear search not attempted -- first point.
 B after Tr=     0.000057   -0.000073   -0.000010
         Rot=    1.000000    0.000000    0.000000    0.000000 Ang=   0.00 deg.
 Variable       Old X    -DE/DX   Delta X   Delta X   Delta X     New X
                                 (Linear)    (Quad)   (Total)
    X1       24.16393   0.00044   0.00000   0.00020   0.00025  24.16418
    Y1       22.14192   0.00012   0.00000  -0.00025  -0.00033  22.14159
    Z1        1.25289   0.00036   0.00000  -0.00004  -0.00005   1.25284
    X2       24.03543  -0.00099   0.00000  -0.00230  -0.00224  24.03318
    Y2       23.47418   0.01064   0.00000   0.02872   0.02865  23.50283
    Z2        2.77034   0.01203   0.00000   0.03207   0.03206   2.80240
    X3       24.34534   0.00145   0.00000   0.00387   0.00392  24.34927
    Y3       20.27487  -0.01524   0.00000  -0.04105  -0.04113  20.23374
    Z3        2.00878   0.00621   0.00000   0.01712   0.01711   2.02589
    X4       22.49530  -0.01400   0.00000  -0.03761  -0.03756  22.45774
    Y4       22.24964   0.00094   0.00000   0.00275   0.00267  22.25231
    Z4        0.11716  -0.00946   0.00000  -0.02500  -0.02501   0.09215
    X5       25.78153   0.01310   0.00000   0.03556   0.03562  25.81715
    Y5       22.56711   0.00355   0.00000   0.01021   0.01013  22.57724
    Z5        0.11527  -0.00914   0.00000  -0.02411  -0.02412   0.09115
         Item               Value     Threshold  Converged?
 Maximum Force            0.015241     0.000450     NO 
 RMS     Force            0.008510     0.000300     NO 
 Maximum Displacement     0.041127     0.001800     NO 
 RMS     Displacement     0.022876     0.001200     NO 
 Predicted change in Energy=-1.459722D-03
 GradGradGradGradGradGradGradGradGradGradGradGradGradGradGradGradGradGrad

 1\1\GINC-H08R06\Force\RB3LYP\3-21G*\C1H4\ACKGYDJ0BD\09-Jul-2026\0\\#fo
 rce b3lyp/3-21G* Geom=PrintInputOrient\\Generated by MDDatasetMaker (A
 uthor: Jinzhe Zeng)\\0,1\C,12.787,11.717,0.663\H,12.719,12.422,1.466\H
 ,12.883,10.729,1.063\H,11.904,11.774,0.062\H,13.643,11.942,0.061\\Vers
 ion=EM64L-G16RevB.01\State=1-A\HF=-40.3001915\RMSD=7.306e-09\RMSF=8.51
 0e-03\Dipole=-0.0000747,-0.0003448,-0.0002679\Quadrupole=-0.0005655,-0
 .000614,0.0011794,-0.0006723,-0.0002458,0.0010449\PG=C01 [X(C1H4)]\\@


 ONE BIG VICE IN A MAN IS APT TO KEEP OUT MANY SMALLER ONES.

                           -- BRET HARTE
 Job cpu time:       0 days  0 hours  2 minutes 41.8 seconds.
 Elapsed time:       0 days  0 hours  0 minutes  3.3 seconds.
 File lengths (MBytes):  RWF=      6 Int=      0 D2E=      0 Chk=      1 Scr=      1
 Normal termination of Gaussian 16 at Thu Jul  9 10:27:01 2026.
