 Entering Gaussian System, Link 0=g16
 Input=loop1_O1_09.gjf
 Output=loop1_O1_09.log
 Initial command:
 /work/home/ackgydj0bd/apprepo/gaussian/16b.01-none_v1.3/app/g16/l1.exe "/work/home/ackgydj0bd/apprepo/gaussian/16b.01-none_v1.3/app/g16/scratch/Gau-33068.inp" -scrdir="/work/home/ackgydj0bd/apprepo/gaussian/16b.01-none_v1.3/app/g16/scratch/"
 Entering Link 1 = /work/home/ackgydj0bd/apprepo/gaussian/16b.01-none_v1.3/app/g16/l1.exe PID=     33069.
  
 Copyright (c) 1988-2017, Gaussian, Inc.  All Rights Reserved.
  
 This is part of the Gaussian(R) 16 program.  It is based on
 the Gaussian(R) 09 system (copyright 2009, Gaussian, Inc.),
 the Gaussian(R) 03 system (copyright 2003, Gaussian, Inc.),
 the Gaussian(R) 98 system (copyright 1998, Gaussian, Inc.),
 the Gaussian(R) 94 system (copyright 1995, Gaussian, Inc.),
 the Gaussian 92(TM) system (copyright 1992, Gaussian, Inc.),
 the Gaussian 90(TM) system (copyright 1990, Gaussian, Inc.),
 the Gaussian 88(TM) system (copyright 1988, Gaussian, Inc.),
 the Gaussian 86(TM) system (copyright 1986, Carnegie Mellon
 University), and the Gaussian 82(TM) system (copyright 1983,
 Carnegie Mellon University). Gaussian is a federally registered
 trademark of Gaussian, Inc.
  
 This software contains proprietary and confidential information,
 including trade secrets, belonging to Gaussian, Inc.
  
 This software is provided under written license and may be
 used, copied, transmitted, or stored only in accord with that
 written license.
  
 The following legend is applicable only to US Government
 contracts under FAR:
  
                    RESTRICTED RIGHTS LEGEND
  
 Use, reproduction and disclosure by the US Government is
 subject to restrictions as set forth in subparagraphs (a)
 and (c) of the Commercial Computer Software - Restricted
 Rights clause in FAR 52.227-19.
  
 Gaussian, Inc.
 340 Quinnipiac St., Bldg. 40, Wallingford CT 06492
  
  
 ---------------------------------------------------------------
 Warning -- This program may not be used in any manner that
 competes with the business of Gaussian, Inc. or will provide
 assistance to any competitor of Gaussian, Inc.  The licensee
 of this program is prohibited from giving any competitor of
 Gaussian, Inc. access to this program.  By using this program,
 the user acknowledges that Gaussian, Inc. is engaged in the
 business of creating and licensing software in the field of
 computational chemistry and represents and warrants to the
 licensee that it is not a competitor of Gaussian, Inc. and that
 it will not use this program in any manner prohibited above.
 ---------------------------------------------------------------
  

 Cite this work as:
 Gaussian 16, Revision B.01,
 M. J. Frisch, G. W. Trucks, H. B. Schlegel, G. E. Scuseria, 
 M. A. Robb, J. R. Cheeseman, G. Scalmani, V. Barone, 
 G. A. Petersson, H. Nakatsuji, X. Li, M. Caricato, A. V. Marenich, 
 J. Bloino, B. G. Janesko, R. Gomperts, B. Mennucci, H. P. Hratchian, 
 J. V. Ortiz, A. F. Izmaylov, J. L. Sonnenberg, D. Williams-Young, 
 F. Ding, F. Lipparini, F. Egidi, J. Goings, B. Peng, A. Petrone, 
 T. Henderson, D. Ranasinghe, V. G. Zakrzewski, J. Gao, N. Rega, 
 G. Zheng, W. Liang, M. Hada, M. Ehara, K. Toyota, R. Fukuda, 
 J. Hasegawa, M. Ishida, T. Nakajima, Y. Honda, O. Kitao, H. Nakai, 
 T. Vreven, K. Throssell, J. A. Montgomery, Jr., J. E. Peralta, 
 F. Ogliaro, M. J. Bearpark, J. J. Heyd, E. N. Brothers, K. N. Kudin, 
 V. N. Staroverov, T. A. Keith, R. Kobayashi, J. Normand, 
 K. Raghavachari, A. P. Rendell, J. C. Burant, S. S. Iyengar, 
 J. Tomasi, M. Cossi, J. M. Millam, M. Klene, C. Adamo, R. Cammi, 
 J. W. Ochterski, R. L. Martin, K. Morokuma, O. Farkas, 
 J. B. Foresman, and D. J. Fox, Gaussian, Inc., Wallingford CT, 2016.
 
 ******************************************
 Gaussian 16:  EM64L-G16RevB.01 20-Dec-2017
                 9-Jul-2026 
 ******************************************
 %nproc=64
 Will use up to   64 processors via shared memory.
 -----------------------------------------
 #force b3lyp/3-21G* Geom=PrintInputOrient
 -----------------------------------------
 1/10=7,30=1,38=1/1,3;
 2/9=2000,12=2,17=6,18=5,40=1/2;
 3/5=5,7=1,11=2,25=1,30=1,71=1,74=-5/1,2,3;
 4//1;
 5/5=2,38=5/2;
 6/7=2,8=2,9=2,10=2,28=1/1;
 7/29=1/1,2,3,16;
 1/10=7,30=1/3;
 99//99;
 -------------------------------------------------
 Generated by MDDatasetMaker (Author: Jinzhe Zeng)
 -------------------------------------------------
 Symbolic Z-matrix:
 Charge =  0 Multiplicity = 4
 H                     2.31846   3.61899   11.3859 
 O                     0.84966   2.29269   9.79415 
 O                     2.2267    2.29914   10.292 
 

 GradGradGradGradGradGradGradGradGradGradGradGradGradGradGradGradGradGrad
 Berny optimization.
 Initialization pass.
 Trust Radius=3.00D-01 FncErr=1.00D-07 GrdErr=1.00D-07 EigMax=2.50D+02 EigMin=1.00D-04
 Number of steps in this run=      2 maximum allowed number of steps=      2.
 GradGradGradGradGradGradGradGradGradGradGradGradGradGradGradGradGradGrad

                          Input orientation:                          
 ---------------------------------------------------------------------
 Center     Atomic      Atomic             Coordinates (Angstroms)
 Number     Number       Type             X           Y           Z
 ---------------------------------------------------------------------
      1          1           0        2.318460    3.618990   11.385900
      2          8           0        0.849660    2.292690    9.794150
      3          8           0        2.226700    2.299140   10.292000
 ---------------------------------------------------------------------
                    Distance matrix (angstroms):
                    1          2          3
     1  H    0.000000
     2  O    2.539707   0.000000
     3  O    1.716695   1.464287   0.000000
 Stoichiometry    HO2(4)
 Framework group  CS[SG(HO2)]
 Deg. of freedom     3
 Full point group                 CS      NOp   2
 Largest Abelian subgroup         CS      NOp   2
 Largest concise Abelian subgroup C1      NOp   1
                         Standard orientation:                         
 ---------------------------------------------------------------------
 Center     Atomic      Atomic             Coordinates (Angstroms)
 Number     Number       Type             X           Y           Z
 ---------------------------------------------------------------------
      1          1           0        1.555569   -1.125807    0.000000
      2          8           0       -0.097223    0.802506    0.000000
      3          8           0       -0.097223   -0.661780    0.000000
 ---------------------------------------------------------------------
 Rotational constants (GHZ):         207.3455196          26.9144430          23.8222064
 Standard basis: 3-21G* (6D, 7F)
 There are    16 symmetry adapted cartesian basis functions of A'  symmetry.
 There are     4 symmetry adapted cartesian basis functions of A"  symmetry.
 There are    16 symmetry adapted basis functions of A'  symmetry.
 There are     4 symmetry adapted basis functions of A"  symmetry.
    20 basis functions,    33 primitive gaussians,    20 cartesian basis functions
    10 alpha electrons        7 beta electrons
       nuclear repulsion energy        27.2618214648 Hartrees.
 NAtoms=    3 NActive=    3 NUniq=    3 SFac= 1.00D+00 NAtFMM=   60 NAOKFM=F Big=F
 Integral buffers will be    131072 words long.
 Raffenetti 2 integral format.
 Two-electron integral symmetry is turned on.
 One-electron integrals computed using PRISM.
 PrsmSu:  requested number of processors reduced to:  31 ShMem   1 Linda.
 NBasis=    20 RedAO= T EigKep=  9.49D-02  NBF=    16     4
 NBsUse=    20 1.00D-06 EigRej= -1.00D+00 NBFU=    16     4
 ExpMin= 1.83D-01 ExpMax= 3.22D+02 ExpMxC= 3.22D+02 IAcc=3 IRadAn=         5 AccDes= 0.00D+00
 Harris functional with IExCor=  402 and IRadAn=       5 diagonalized for initial guess.
 HarFok:  IExCor=  402 AccDes= 0.00D+00 IRadAn=         5 IDoV= 1 UseB2=F ITyADJ=14
 ICtDFT=  3500011 ScaDFX=  1.000000  1.000000  1.000000  1.000000
 FoFCou: FMM=F IPFlag=           0 FMFlag=      100000 FMFlg1=           0
         NFxFlg=           0 DoJE=T BraDBF=F KetDBF=T FulRan=T
         wScrn=  0.000000 ICntrl=       500 IOpCl=  0 I1Cent=   200000004 NGrid=           0
         NMat0=    1 NMatS0=      1 NMatT0=    0 NMatD0=    1 NMtDS0=    0 NMtDT0=    0
 Petite list used in FoFCou.
 Initial guess orbital symmetries:
 Alpha Orbitals:
       Occupied  (A') (A') (A') (A') (A') (A') (A") (A') (A") (A')
       Virtual   (A') (A') (A") (A') (A') (A") (A') (A') (A') (A')
 Beta  Orbitals:
       Occupied  (A') (A') (A') (A') (A') (A') (A")
       Virtual   (A') (A") (A') (A') (A') (A") (A') (A') (A") (A')
                 (A') (A') (A')
 The electronic state of the initial guess is 4-A".
 Initial guess <Sx>= 0.0000 <Sy>= 0.0000 <Sz>= 1.5000 <S**2>= 3.7500 S= 1.5000
 Keep R1 and R2 ints in memory in symmetry-blocked form, NReq=55259075.
 Requested convergence on RMS density matrix=1.00D-08 within 128 cycles.
 Requested convergence on MAX density matrix=1.00D-06.
 Requested convergence on             energy=1.00D-06.
 No special actions if energy rises.
 Integral accuracy reduced to 1.0D-05 until final iterations.
 Initial convergence to 1.0D-05 achieved.  Increase integral accuracy.
 SCF Done:  E(UB3LYP) =  -149.941390606     A.U. after   18 cycles
            NFock= 18  Conv=0.48D-08     -V/T= 2.0099
 <Sx>= 0.0000 <Sy>= 0.0000 <Sz>= 1.5000 <S**2>= 3.7554 S= 1.5013
 <L.S>= 0.000000000000E+00
 Annihilation of the first spin contaminant:
 S**2 before annihilation     3.7554,   after     3.7500

 **********************************************************************

            Population analysis using the SCF Density.

 **********************************************************************

 Orbital symmetries:
 Alpha Orbitals:
       Occupied  (A') (A') (A') (A') (A') (A') (A") (A') (A") (A')
       Virtual   (A') (A') (A") (A') (A') (A") (A') (A') (A') (A')
 Beta  Orbitals:
       Occupied  (A') (A') (A') (A') (A') (A') (A")
       Virtual   (A') (A") (A') (A') (A') (A") (A') (A') (A") (A')
                 (A') (A') (A')
 The electronic state is 4-A".
 Alpha  occ. eigenvalues --  -19.22215 -19.20744  -1.16259  -0.90067  -0.51374
 Alpha  occ. eigenvalues --   -0.50019  -0.49362  -0.38145  -0.35880  -0.23104
 Alpha virt. eigenvalues --   -0.04339   0.88639   1.23305   1.25398   1.36373
 Alpha virt. eigenvalues --    1.42102   1.46030   1.56327   2.13308   2.67239
  Beta  occ. eigenvalues --  -19.19277 -19.17862  -1.09239  -0.80882  -0.46789
  Beta  occ. eigenvalues --   -0.39240  -0.38305
  Beta virt. eigenvalues --   -0.18090  -0.16789  -0.01792   0.01003   1.04397
  Beta virt. eigenvalues --    1.30747   1.33284   1.39252   1.49135   1.53239
  Beta virt. eigenvalues --    1.58569   2.19307   2.72930
          Condensed to atoms (all electrons):
               1          2          3
     1  H    1.107628   0.007892  -0.054037
     2  O    0.007892   7.793846   0.158702
     3  O   -0.054037   0.158702   7.873411
          Atomic-Atomic Spin Densities.
               1          2          3
     1  H    1.039879   0.003038  -0.119038
     2  O    0.003038   1.248853  -0.159063
     3  O   -0.119038  -0.159063   1.261393
 Mulliken charges and spin densities:
               1          2
     1  H   -0.061484   0.923879
     2  O    0.039560   1.092828
     3  O    0.021924   0.983293
 Sum of Mulliken charges =   0.00000   3.00000
 Mulliken charges and spin densities with hydrogens summed into heavy atoms:
               1          2
     2  O    0.039560   1.092828
     3  O   -0.039560   1.907172
 Electronic spatial extent (au):  <R**2>=             70.1650
 Charge=              0.0000 electrons
 Dipole moment (field-independent basis, Debye):
    X=             -0.5733    Y=              0.4341    Z=              0.0000  Tot=              0.7191
 Quadrupole moment (field-independent basis, Debye-Ang):
   XX=            -12.0071   YY=            -11.3724   ZZ=            -10.9826
   XY=              0.6971   XZ=              0.0000   YZ=              0.0000
 Traceless Quadrupole moment (field-independent basis, Debye-Ang):
   XX=             -0.5531   YY=              0.0816   ZZ=              0.4715
   XY=              0.6971   XZ=              0.0000   YZ=              0.0000
 Octapole moment (field-independent basis, Debye-Ang**2):
  XXX=             -5.2625  YYY=              2.9620  ZZZ=              0.0000  XYY=             -1.9248
  XXY=              2.2184  XXZ=              0.0000  XZZ=             -1.1373  YZZ=              0.7409
  YYZ=              0.0000  XYZ=              0.0000
 Hexadecapole moment (field-independent basis, Debye-Ang**3):
 XXXX=            -30.0635 YYYY=            -46.8789 ZZZZ=             -6.8785 XXXY=              9.3150
 XXXZ=              0.0000 YYYX=              8.3342 YYYZ=              0.0000 ZZZX=              0.0000
 ZZZY=              0.0000 XXYY=            -13.9682 XXZZ=             -5.6666 YYZZ=             -9.1686
 XXYZ=              0.0000 YYXZ=              0.0000 ZZXY=              2.4317
 N-N= 2.726182146483D+01 E-N=-4.084177986627D+02  KE= 1.484777906260D+02
 Symmetry A'   KE= 1.409700486187D+02
 Symmetry A"   KE= 7.507742007331D+00
 Symmetry A'   SP= 2.000000000000D+00
 Symmetry A"   SP= 1.000000000000D+00
                          Isotropic Fermi Contact Couplings
        Atom                 a.u.       MegaHertz       Gauss      10(-4) cm-1
     1  H(1)               0.24421     363.86622     129.83652     121.37271
     2  O(17)              0.13549     -27.37760      -9.76901      -9.13218
     3  O(17)              0.35239     -71.20518     -25.40778     -23.75149
 --------------------------------------------------------
       Center         ----  Spin Dipole Couplings  ----
                      3XX-RR        3YY-RR        3ZZ-RR
 --------------------------------------------------------
     1   Atom        0.032039     -0.007569     -0.024470
     2   Atom        1.495113     -2.068871      0.573758
     3   Atom        0.876838     -2.139442      1.262605
 --------------------------------------------------------
                        XY            XZ            YZ
 --------------------------------------------------------
     1   Atom       -0.027044      0.000000      0.000000
     2   Atom        0.120589      0.000000      0.000000
     3   Atom        0.204016      0.000000      0.000000
 --------------------------------------------------------


 ---------------------------------------------------------------------------------
              Anisotropic Spin Dipole Couplings in Principal Axis System
 ---------------------------------------------------------------------------------

       Atom             a.u.   MegaHertz   Gauss  10(-4) cm-1        Axes

              Baa    -0.0245   -13.056    -4.659    -4.355  0.0000  0.0000  1.0000
     1 H(1)   Bbb    -0.0213   -11.356    -4.052    -3.788  0.4523  0.8919  0.0000
              Bcc     0.0458    24.413     8.711     8.143  0.8919 -0.4523  0.0000
 
              Baa    -2.0729   149.997    53.523    50.034 -0.0338  0.9994  0.0000
     2 O(17)  Bbb     0.5738   -41.517   -14.814   -13.848  0.0000  0.0000  1.0000
              Bcc     1.4992  -108.480   -38.708   -36.185  0.9994  0.0338  0.0000
 
              Baa    -2.1532   155.803    55.594    51.970 -0.0672  0.9977  0.0000
     3 O(17)  Bbb     0.8906   -64.441   -22.994   -21.495  0.9977  0.0672  0.0000
              Bcc     1.2626   -91.361   -32.600   -30.475  0.0000  0.0000  1.0000
 

 ---------------------------------------------------------------------------------

 PrsmSu:  requested number of processors reduced to:  31 ShMem   1 Linda.
 Calling FoFJK, ICntrl=      2127 FMM=F ISym2X=1 I1Cent= 0 IOpClX= 1 NMat=1 NMatS=1 NMatT=0.
 ***** Axes restored to original set *****
 -------------------------------------------------------------------
 Center     Atomic                   Forces (Hartrees/Bohr)
 Number     Number              X              Y              Z
 -------------------------------------------------------------------
      1        1           0.002384134    0.022939017    0.019294406
      2        8           0.103765289   -0.000273056    0.036904667
      3        8          -0.106149423   -0.022665961   -0.056199072
 -------------------------------------------------------------------
 Cartesian Forces:  Max     0.106149423 RMS     0.055750638

 GradGradGradGradGradGradGradGradGradGradGradGradGradGradGradGradGradGrad
 Berny optimization.
 Search for a local minimum.
 Step number   1 out of a maximum of    2
 All quantities printed in internal units (Hartrees-Bohrs-Radians)
 Second derivative matrix not updated -- first step.
 The second derivative matrix:
                          X1        Y1        Z1        X2        Y2
           X1           1.00000
           Y1           0.00000   1.00000
           Z1           0.00000   0.00000   1.00000
           X2           0.00000   0.00000   0.00000   0.43782
           Y2           0.00000   0.00000   0.00000  -0.00263   0.99999
           Z2           0.00000   0.00000   0.00000  -0.20325  -0.00095
           X3           0.00000   0.00000   0.00000  -0.32221  -0.00151
           Y3           0.00000   0.00000   0.00000  -0.00151  -0.00001
           Z3           0.00000   0.00000   0.00000  -0.11649  -0.00055
                          Z2        X3        Y3        Z3
           Z2           0.92652
           X3          -0.11649   0.43782
           Y3          -0.00055  -0.00263   0.99999
           Z3          -0.04212  -0.20325  -0.00095   0.92652
 ITU=  0
     Eigenvalues ---    0.72866   0.95328   1.00000
 Angle between quadratic step and forces=   6.62 degrees.
 ClnCor:  largest displacement from symmetrization is 1.42D-16 for atom     3.
 Linear search not attempted -- first point.
 ClnCor:  largest displacement from symmetrization is 3.66D-15 for atom     1.
 B after Tr=    -0.030411    0.009316   -0.003391
         Rot=    1.000000   -0.000261   -0.000586    0.000729 Ang=  -0.11 deg.
 Variable       Old X    -DE/DX   Delta X   Delta X   Delta X     New X
                                 (Linear)    (Quad)   (Total)
    X1        4.38125   0.00238   0.00000  -0.00170   0.00313   4.38438
    Y1        6.83890   0.02294   0.00000   0.02786   0.01953   6.85843
    Z1       21.51623   0.01929   0.00000   0.02179   0.01682  21.53305
    X2        1.60562   0.10377   0.00000   0.14657   0.14423   1.74985
    Y2        4.33256  -0.00027   0.00000   0.00192  -0.00102   4.33153
    Z2       18.50826   0.03690   0.00000   0.05398   0.05078  18.55904
    X3        4.20785  -0.10615   0.00000  -0.14597  -0.14736   4.06050
    Y3        4.34474  -0.02267   0.00000  -0.01177  -0.01851   4.32624
    Z3       19.44906  -0.05620   0.00000  -0.06168  -0.06760  19.38146
         Item               Value     Threshold  Converged?
 Maximum Force            0.106149     0.000450     NO 
 RMS     Force            0.055751     0.000300     NO 
 Maximum Displacement     0.147355     0.001800     NO 
 RMS     Displacement     0.075041     0.001200     NO 
 Predicted change in Energy=-1.886998D-02
 GradGradGradGradGradGradGradGradGradGradGradGradGradGradGradGradGradGrad

 1\1\GINC-H08R06\Force\UB3LYP\3-21G*\H1O2(4)\ACKGYDJ0BD\09-Jul-2026\0\\
 #force b3lyp/3-21G* Geom=PrintInputOrient\\Generated by MDDatasetMaker
  (Author: Jinzhe Zeng)\\0,4\H,2.31846,3.61899,11.3859\O,0.84966,2.2926
 9,9.79415\O,2.2267,2.29914,10.292\\Version=EM64L-G16RevB.01\State=4-A"
 \HF=-149.9413906\S2=3.755355\S2-1=0.\S2A=3.75001\RMSD=4.795e-09\RMSF=5
 .575e-02\Dipole=-0.1135785,-0.1805843,-0.1858127\Quadrupole=0.2643326,
 -0.1373769,-0.1269557,-0.2626873,-0.2420157,-0.4862123\PG=CS [SG(H1O2)
 ]\\@


 SOME THINGS ARE EASY, THEY ARE ONLY HARD TO DO.
            -- A. EINSTEIN TO J. O. HIRSCHFELDER
 THE ONLY TROUBLE WITH A SURE THING IS THE UNCERTAINTY.
     -- FROM A TEABAG (BELONGING TO W.H.?)
 Job cpu time:       0 days  0 hours  3 minutes  0.9 seconds.
 Elapsed time:       0 days  0 hours  0 minutes  3.6 seconds.
 File lengths (MBytes):  RWF=      6 Int=      0 D2E=      0 Chk=      1 Scr=      1
 Normal termination of Gaussian 16 at Thu Jul  9 10:29:58 2026.
