 Entering Gaussian System, Link 0=g16
 Input=loop1_H1_00.gjf
 Output=loop1_H1_00.log
 Initial command:
 /work/home/ackgydj0bd/apprepo/gaussian/16b.01-none_v1.3/app/g16/l1.exe "/work/home/ackgydj0bd/apprepo/gaussian/16b.01-none_v1.3/app/g16/scratch/Gau-6041.inp" -scrdir="/work/home/ackgydj0bd/apprepo/gaussian/16b.01-none_v1.3/app/g16/scratch/"
 Entering Link 1 = /work/home/ackgydj0bd/apprepo/gaussian/16b.01-none_v1.3/app/g16/l1.exe PID=      6042.
  
 Copyright (c) 1988-2017, Gaussian, Inc.  All Rights Reserved.
  
 This is part of the Gaussian(R) 16 program.  It is based on
 the Gaussian(R) 09 system (copyright 2009, Gaussian, Inc.),
 the Gaussian(R) 03 system (copyright 2003, Gaussian, Inc.),
 the Gaussian(R) 98 system (copyright 1998, Gaussian, Inc.),
 the Gaussian(R) 94 system (copyright 1995, Gaussian, Inc.),
 the Gaussian 92(TM) system (copyright 1992, Gaussian, Inc.),
 the Gaussian 90(TM) system (copyright 1990, Gaussian, Inc.),
 the Gaussian 88(TM) system (copyright 1988, Gaussian, Inc.),
 the Gaussian 86(TM) system (copyright 1986, Carnegie Mellon
 University), and the Gaussian 82(TM) system (copyright 1983,
 Carnegie Mellon University). Gaussian is a federally registered
 trademark of Gaussian, Inc.
  
 This software contains proprietary and confidential information,
 including trade secrets, belonging to Gaussian, Inc.
  
 This software is provided under written license and may be
 used, copied, transmitted, or stored only in accord with that
 written license.
  
 The following legend is applicable only to US Government
 contracts under FAR:
  
                    RESTRICTED RIGHTS LEGEND
  
 Use, reproduction and disclosure by the US Government is
 subject to restrictions as set forth in subparagraphs (a)
 and (c) of the Commercial Computer Software - Restricted
 Rights clause in FAR 52.227-19.
  
 Gaussian, Inc.
 340 Quinnipiac St., Bldg. 40, Wallingford CT 06492
  
  
 ---------------------------------------------------------------
 Warning -- This program may not be used in any manner that
 competes with the business of Gaussian, Inc. or will provide
 assistance to any competitor of Gaussian, Inc.  The licensee
 of this program is prohibited from giving any competitor of
 Gaussian, Inc. access to this program.  By using this program,
 the user acknowledges that Gaussian, Inc. is engaged in the
 business of creating and licensing software in the field of
 computational chemistry and represents and warrants to the
 licensee that it is not a competitor of Gaussian, Inc. and that
 it will not use this program in any manner prohibited above.
 ---------------------------------------------------------------
  

 Cite this work as:
 Gaussian 16, Revision B.01,
 M. J. Frisch, G. W. Trucks, H. B. Schlegel, G. E. Scuseria, 
 M. A. Robb, J. R. Cheeseman, G. Scalmani, V. Barone, 
 G. A. Petersson, H. Nakatsuji, X. Li, M. Caricato, A. V. Marenich, 
 J. Bloino, B. G. Janesko, R. Gomperts, B. Mennucci, H. P. Hratchian, 
 J. V. Ortiz, A. F. Izmaylov, J. L. Sonnenberg, D. Williams-Young, 
 F. Ding, F. Lipparini, F. Egidi, J. Goings, B. Peng, A. Petrone, 
 T. Henderson, D. Ranasinghe, V. G. Zakrzewski, J. Gao, N. Rega, 
 G. Zheng, W. Liang, M. Hada, M. Ehara, K. Toyota, R. Fukuda, 
 J. Hasegawa, M. Ishida, T. Nakajima, Y. Honda, O. Kitao, H. Nakai, 
 T. Vreven, K. Throssell, J. A. Montgomery, Jr., J. E. Peralta, 
 F. Ogliaro, M. J. Bearpark, J. J. Heyd, E. N. Brothers, K. N. Kudin, 
 V. N. Staroverov, T. A. Keith, R. Kobayashi, J. Normand, 
 K. Raghavachari, A. P. Rendell, J. C. Burant, S. S. Iyengar, 
 J. Tomasi, M. Cossi, J. M. Millam, M. Klene, C. Adamo, R. Cammi, 
 J. W. Ochterski, R. L. Martin, K. Morokuma, O. Farkas, 
 J. B. Foresman, and D. J. Fox, Gaussian, Inc., Wallingford CT, 2016.
 
 ******************************************
 Gaussian 16:  EM64L-G16RevB.01 20-Dec-2017
                 9-Jul-2026 
 ******************************************
 %nproc=64
 Will use up to   64 processors via shared memory.
 -----------------------------------------
 #force b3lyp/3-21G* Geom=PrintInputOrient
 -----------------------------------------
 1/10=7,30=1,38=1/1,3;
 2/9=2000,12=2,17=6,18=5,40=1/2;
 3/5=5,7=1,11=2,25=1,30=1,71=1,74=-5/1,2,3;
 4//1;
 5/5=2,38=5/2;
 6/7=2,8=2,9=2,10=2,28=1/1;
 7/29=1/1,2,3,16;
 1/10=7,30=1/3;
 99//99;
 -------------------------------------------------
 Generated by MDDatasetMaker (Author: Jinzhe Zeng)
 -------------------------------------------------
 Symbolic Z-matrix:
 Charge =  0 Multiplicity = 1
 C                     2.332     21.248    18.866 
 H                     2.485     21.674    19.836 
 H                     1.598     20.471    18.929 
 H                     3.254     20.84     18.507 
 H                     1.991     22.007    18.194 
 

 GradGradGradGradGradGradGradGradGradGradGradGradGradGradGradGradGradGrad
 Berny optimization.
 Initialization pass.
 Trust Radius=3.00D-01 FncErr=1.00D-07 GrdErr=1.00D-07 EigMax=2.50D+02 EigMin=1.00D-04
 Number of steps in this run=      2 maximum allowed number of steps=      2.
 GradGradGradGradGradGradGradGradGradGradGradGradGradGradGradGradGradGrad

                          Input orientation:                          
 ---------------------------------------------------------------------
 Center     Atomic      Atomic             Coordinates (Angstroms)
 Number     Number       Type             X           Y           Z
 ---------------------------------------------------------------------
      1          6           0        2.332000   21.248000   18.866000
      2          1           0        2.485000   21.674000   19.836000
      3          1           0        1.598000   20.471000   18.929000
      4          1           0        3.254000   20.840000   18.507000
      5          1           0        1.991000   22.007000   18.194000
 ---------------------------------------------------------------------
                    Distance matrix (angstroms):
                    1          2          3          4          5
     1  C    0.000000
     2  H    1.070413   0.000000
     3  H    1.070726   1.748321   0.000000
     4  H    1.070247   1.747329   1.748308   0.000000
     5  H    1.069554   1.746737   1.747561   1.747864   0.000000
 Stoichiometry    CH4
 Framework group  C1[X(CH4)]
 Deg. of freedom     9
 Full point group                 C1      NOp   1
 Largest Abelian subgroup         C1      NOp   1
 Largest concise Abelian subgroup C1      NOp   1
                         Standard orientation:                         
 ---------------------------------------------------------------------
 Center     Atomic      Atomic             Coordinates (Angstroms)
 Number     Number       Type             X           Y           Z
 ---------------------------------------------------------------------
      1          6           0        0.000035    0.000037   -0.000194
      2          1           0       -0.505735   -0.457064    0.825059
      3          1           0        0.995628    0.263501    0.292780
      4          1           0       -0.529423    0.881070   -0.298326
      5          1           0        0.039322   -0.687728   -0.818351
 ---------------------------------------------------------------------
 Rotational constants (GHZ):         164.2642376         164.1951905         164.0632236
 Standard basis: 3-21G* (6D, 7F)
 There are    17 symmetry adapted cartesian basis functions of A   symmetry.
 There are    17 symmetry adapted basis functions of A   symmetry.
    17 basis functions,    27 primitive gaussians,    17 cartesian basis functions
     5 alpha electrons        5 beta electrons
       nuclear repulsion energy        13.6835128522 Hartrees.
 NAtoms=    5 NActive=    5 NUniq=    5 SFac= 1.00D+00 NAtFMM=   60 NAOKFM=F Big=F
 Integral buffers will be    131072 words long.
 Raffenetti 2 integral format.
 Two-electron integral symmetry is turned on.
 One-electron integrals computed using PRISM.
 PrsmSu:  requested number of processors reduced to:  31 ShMem   1 Linda.
 NBasis=    17 RedAO= T EigKep=  3.16D-02  NBF=    17
 NBsUse=    17 1.00D-06 EigRej= -1.00D+00 NBFU=    17
 ExpMin= 1.83D-01 ExpMax= 1.72D+02 ExpMxC= 1.72D+02 IAcc=3 IRadAn=         5 AccDes= 0.00D+00
 Harris functional with IExCor=  402 and IRadAn=       5 diagonalized for initial guess.
 HarFok:  IExCor=  402 AccDes= 0.00D+00 IRadAn=         5 IDoV= 1 UseB2=F ITyADJ=14
 ICtDFT=  3500011 ScaDFX=  1.000000  1.000000  1.000000  1.000000
 FoFCou: FMM=F IPFlag=           0 FMFlag=      100000 FMFlg1=           0
         NFxFlg=           0 DoJE=T BraDBF=F KetDBF=T FulRan=T
         wScrn=  0.000000 ICntrl=       500 IOpCl=  0 I1Cent=   200000004 NGrid=           0
         NMat0=    1 NMatS0=      1 NMatT0=    0 NMatD0=    1 NMtDS0=    0 NMtDT0=    0
 Petite list used in FoFCou.
 Keep R1 ints in memory in canonical form, NReq=55236554.
 Requested convergence on RMS density matrix=1.00D-08 within 128 cycles.
 Requested convergence on MAX density matrix=1.00D-06.
 Requested convergence on             energy=1.00D-06.
 No special actions if energy rises.
 Integral accuracy reduced to 1.0D-05 until final iterations.
 Initial convergence to 1.0D-05 achieved.  Increase integral accuracy.
 SCF Done:  E(RB3LYP) =  -40.3001897433     A.U. after    8 cycles
            NFock=  8  Conv=0.56D-08     -V/T= 2.0076

 **********************************************************************

            Population analysis using the SCF Density.

 **********************************************************************

 Orbital symmetries:
       Occupied  (A) (A) (A) (A) (A)
       Virtual   (A) (A) (A) (A) (A) (A) (A) (A) (A) (A) (A) (A)
 The electronic state is 1-A.
 Alpha  occ. eigenvalues --  -10.09024  -0.69699  -0.39306  -0.39283  -0.39271
 Alpha virt. eigenvalues --    0.15264   0.20180   0.20182   0.20210   0.69596
 Alpha virt. eigenvalues --    0.69623   0.69648   1.05713   1.07451   1.07458
 Alpha virt. eigenvalues --    1.07520   1.70657
          Condensed to atoms (all electrons):
               1          2          3          4          5
     1  C    5.301565   0.370380   0.370449   0.370476   0.370492
     2  H    0.370380   0.514160  -0.026698  -0.026797  -0.026832
     3  H    0.370449  -0.026698   0.514023  -0.026705  -0.026759
     4  H    0.370476  -0.026797  -0.026705   0.513886  -0.026696
     5  H    0.370492  -0.026832  -0.026759  -0.026696   0.513746
 Mulliken charges:
               1
     1  C   -0.783362
     2  H    0.195787
     3  H    0.195689
     4  H    0.195836
     5  H    0.196049
 Sum of Mulliken charges =   0.00000
 Mulliken charges with hydrogens summed into heavy atoms:
               1
     1  C    0.000000
 Electronic spatial extent (au):  <R**2>=             34.6387
 Charge=              0.0000 electrons
 Dipole moment (field-independent basis, Debye):
    X=             -0.0006    Y=             -0.0007    Z=              0.0000  Tot=              0.0009
 Quadrupole moment (field-independent basis, Debye-Ang):
   XX=             -8.1931   YY=             -8.1934   ZZ=             -8.1972
   XY=             -0.0005   XZ=             -0.0001   YZ=              0.0010
 Traceless Quadrupole moment (field-independent basis, Debye-Ang):
   XX=              0.0015   YY=              0.0012   ZZ=             -0.0027
   XY=             -0.0005   XZ=             -0.0001   YZ=              0.0010
 Octapole moment (field-independent basis, Debye-Ang**2):
  XXX=              0.5128  YYY=              0.2018  ZZZ=              0.0069  XYY=             -0.3117
  XXY=              0.2824  XXZ=              0.3013  XZZ=             -0.2029  YZZ=             -0.4866
  YYZ=             -0.3095  XYZ=              0.3107
 Hexadecapole moment (field-independent basis, Debye-Ang**3):
 XXXX=            -14.1723 YYYY=            -14.4326 ZZZZ=            -14.3708 XXXY=              0.2013
 XXXZ=              0.2429 YYYX=             -0.3320 YYYZ=             -0.0100 ZZZX=             -0.2863
 ZZZY=              0.1129 XXYY=             -4.7600 XXZZ=             -4.8186 YYZZ=             -4.5498
 XXYZ=             -0.0989 YYXZ=              0.0433 ZZXY=              0.1288
 N-N= 1.368351285224D+01 E-N=-1.200060835365D+02  KE= 3.999788778490D+01
 PrsmSu:  requested number of processors reduced to:  31 ShMem   1 Linda.
 Calling FoFJK, ICntrl=      2127 FMM=F ISym2X=0 I1Cent= 0 IOpClX= 0 NMat=1 NMatS=1 NMatT=0.
 ***** Axes restored to original set *****
 -------------------------------------------------------------------
 Center     Atomic                   Forces (Hartrees/Bohr)
 Number     Number              X              Y              Z
 -------------------------------------------------------------------
      1        6          -0.000049404   -0.000466705    0.000539998
      2        1           0.002291844    0.006454537    0.014884741
      3        1          -0.011020396   -0.011706089    0.000964186
      4        1           0.014138111   -0.006276747   -0.005624331
      5        1          -0.005360154    0.011995004   -0.010764594
 -------------------------------------------------------------------
 Cartesian Forces:  Max     0.014884741 RMS     0.008515856

 GradGradGradGradGradGradGradGradGradGradGradGradGradGradGradGradGradGrad
 Berny optimization.
 Search for a local minimum.
 Step number   1 out of a maximum of    2
 All quantities printed in internal units (Hartrees-Bohrs-Radians)
 Second derivative matrix not updated -- first step.
 The second derivative matrix:
                          X1        Y1        Z1        X2        Y2
           X1           0.70802
           Y1          -0.00056   0.70814
           Z1           0.00026  -0.00050   0.70743
           X2          -0.08537  -0.01663  -0.03787   0.06550
           Y2          -0.01663  -0.12571  -0.10548   0.01777   0.10863
           Z2          -0.03787  -0.10544  -0.31948   0.04050   0.11277
           X3          -0.21667  -0.14523   0.01177   0.00265   0.00202
           Y3          -0.14520  -0.23317   0.01248  -0.00461  -0.00388
           Z3           0.01178   0.01250  -0.08034  -0.02602  -0.02429
           X4          -0.29657   0.09608   0.08457   0.01725  -0.00463
           Y4           0.09603  -0.12200  -0.03735   0.01097  -0.00263
           Z4           0.08455  -0.03736  -0.11233   0.03184  -0.00890
           X5          -0.10941   0.06635  -0.05873  -0.00004   0.00146
           Y5           0.06637  -0.22725   0.13085  -0.00751   0.02360
           Z5          -0.05872   0.13080  -0.19528  -0.00846   0.02591
                          Z2        X3        Y3        Z3        X4
           Z2           0.31587
           X3          -0.00131   0.20587
           Y3           0.00243   0.15534   0.22356
           Z3           0.01477  -0.01259  -0.01335   0.06011
           X4          -0.00069  -0.01109   0.01094   0.00567   0.29132
           Y4          -0.00058  -0.02386   0.02350   0.01182  -0.10274
           Z4          -0.00112  -0.00136   0.00138   0.00115  -0.09042
           X5          -0.00064   0.01924  -0.01646   0.02114  -0.00091
           Y5          -0.00918   0.01173  -0.01000   0.01332   0.00035
           Z5          -0.01004   0.00349  -0.00295   0.00432   0.00086
                          Y4        Z4        X5        Y5        Z5
           Y4           0.10463
           Z4           0.04000   0.09431
           X5           0.01960  -0.02461   0.09112
           Y5          -0.00349   0.00488  -0.07095   0.21715
           Z5          -0.01389   0.01800   0.06283  -0.13987   0.18300
 ITU=  0
     Eigenvalues ---    0.11732   0.11738   0.14137   0.14143   0.14153
     Eigenvalues ---    0.37200   0.86832   0.86863   0.87049
 Angle between quadratic step and forces=   1.37 degrees.
 Linear search not attempted -- first point.
 B after Tr=     0.000002    0.000013    0.000125
         Rot=    1.000000    0.000000    0.000000    0.000000 Ang=   0.00 deg.
 Variable       Old X    -DE/DX   Delta X   Delta X   Delta X     New X
                                 (Linear)    (Quad)   (Total)
    X1        4.40684  -0.00005   0.00000   0.00001   0.00001   4.40685
    Y1       40.15290  -0.00047   0.00000   0.00005   0.00006  40.15296
    Z1       35.65157   0.00054   0.00000   0.00043   0.00055  35.65213
    X2        4.69597   0.00229   0.00000   0.00589   0.00589   4.70186
    Y2       40.95792   0.00645   0.00000   0.01692   0.01693  40.97485
    Z2       37.48461   0.01488   0.00000   0.04073   0.04085  37.52546
    X3        3.01978  -0.01102   0.00000  -0.02946  -0.02946   2.99032
    Y3       38.68458  -0.01171   0.00000  -0.03168  -0.03167  38.65291
    Z3       35.77063   0.00096   0.00000   0.00289   0.00302  35.77364
    X4        6.14917   0.01414   0.00000   0.03763   0.03763   6.18680
    Y4       39.38189  -0.00628   0.00000  -0.01701  -0.01700  39.36490
    Z4       34.97316  -0.00562   0.00000  -0.01546  -0.01534  34.95782
    X5        3.76244  -0.00536   0.00000  -0.01408  -0.01408   3.74837
    Y5       41.58720   0.01200   0.00000   0.03166   0.03168  41.61888
    Z5       34.38168  -0.01076   0.00000  -0.02921  -0.02909  34.35259
         Item               Value     Threshold  Converged?
 Maximum Force            0.014885     0.000450     NO 
 RMS     Force            0.008516     0.000300     NO 
 Maximum Displacement     0.040851     0.001800     NO 
 RMS     Displacement     0.022888     0.001200     NO 
 Predicted change in Energy=-1.461447D-03
 GradGradGradGradGradGradGradGradGradGradGradGradGradGradGradGradGradGrad

 1\1\GINC-H08R06\Force\RB3LYP\3-21G*\C1H4\ACKGYDJ0BD\09-Jul-2026\0\\#fo
 rce b3lyp/3-21G* Geom=PrintInputOrient\\Generated by MDDatasetMaker (A
 uthor: Jinzhe Zeng)\\0,1\C,2.332,21.248,18.866\H,2.485,21.674,19.836\H
 ,1.598,20.471,18.929\H,3.254,20.84,18.507\H,1.991,22.007,18.194\\Versi
 on=EM64L-G16RevB.01\State=1-A\HF=-40.3001897\RMSD=5.572e-09\RMSF=8.516
 e-03\Dipole=0.0000377,0.0003461,0.0001037\Quadrupole=0.001288,0.000767
 8,-0.0020558,-0.0001981,0.0005936,0.0000736\PG=C01 [X(C1H4)]\\@


 "WOULD YOU TELL ME PLEASE, WHICH WAY I OUGHT TO WALK FROM HERE?"
 "THAT DEPENDS A GREAT DEAL ON WHERE YOU WANT TO GO," SAID THE CAT.
 "I DON'T MUCH CARE WHERE -- ", SAID ALICE.
 "THEN IT DOESN'T MATTER WHICH WAY YOU WALK," SAID THE CAT.

                                      -- LEWIS CARROLL
 Job cpu time:       0 days  0 hours  2 minutes 48.4 seconds.
 Elapsed time:       0 days  0 hours  0 minutes  3.4 seconds.
 File lengths (MBytes):  RWF=      6 Int=      0 D2E=      0 Chk=      1 Scr=      1
 Normal termination of Gaussian 16 at Thu Jul  9 10:28:12 2026.
