 Entering Gaussian System, Link 0=g16
 Input=loop1_O1_00.gjf
 Output=loop1_O1_00.log
 Initial command:
 /work/home/ackgydj0bd/apprepo/gaussian/16b.01-none_v1.3/app/g16/l1.exe "/work/home/ackgydj0bd/apprepo/gaussian/16b.01-none_v1.3/app/g16/scratch/Gau-24462.inp" -scrdir="/work/home/ackgydj0bd/apprepo/gaussian/16b.01-none_v1.3/app/g16/scratch/"
 Entering Link 1 = /work/home/ackgydj0bd/apprepo/gaussian/16b.01-none_v1.3/app/g16/l1.exe PID=     24463.
  
 Copyright (c) 1988-2017, Gaussian, Inc.  All Rights Reserved.
  
 This is part of the Gaussian(R) 16 program.  It is based on
 the Gaussian(R) 09 system (copyright 2009, Gaussian, Inc.),
 the Gaussian(R) 03 system (copyright 2003, Gaussian, Inc.),
 the Gaussian(R) 98 system (copyright 1998, Gaussian, Inc.),
 the Gaussian(R) 94 system (copyright 1995, Gaussian, Inc.),
 the Gaussian 92(TM) system (copyright 1992, Gaussian, Inc.),
 the Gaussian 90(TM) system (copyright 1990, Gaussian, Inc.),
 the Gaussian 88(TM) system (copyright 1988, Gaussian, Inc.),
 the Gaussian 86(TM) system (copyright 1986, Carnegie Mellon
 University), and the Gaussian 82(TM) system (copyright 1983,
 Carnegie Mellon University). Gaussian is a federally registered
 trademark of Gaussian, Inc.
  
 This software contains proprietary and confidential information,
 including trade secrets, belonging to Gaussian, Inc.
  
 This software is provided under written license and may be
 used, copied, transmitted, or stored only in accord with that
 written license.
  
 The following legend is applicable only to US Government
 contracts under FAR:
  
                    RESTRICTED RIGHTS LEGEND
  
 Use, reproduction and disclosure by the US Government is
 subject to restrictions as set forth in subparagraphs (a)
 and (c) of the Commercial Computer Software - Restricted
 Rights clause in FAR 52.227-19.
  
 Gaussian, Inc.
 340 Quinnipiac St., Bldg. 40, Wallingford CT 06492
  
  
 ---------------------------------------------------------------
 Warning -- This program may not be used in any manner that
 competes with the business of Gaussian, Inc. or will provide
 assistance to any competitor of Gaussian, Inc.  The licensee
 of this program is prohibited from giving any competitor of
 Gaussian, Inc. access to this program.  By using this program,
 the user acknowledges that Gaussian, Inc. is engaged in the
 business of creating and licensing software in the field of
 computational chemistry and represents and warrants to the
 licensee that it is not a competitor of Gaussian, Inc. and that
 it will not use this program in any manner prohibited above.
 ---------------------------------------------------------------
  

 Cite this work as:
 Gaussian 16, Revision B.01,
 M. J. Frisch, G. W. Trucks, H. B. Schlegel, G. E. Scuseria, 
 M. A. Robb, J. R. Cheeseman, G. Scalmani, V. Barone, 
 G. A. Petersson, H. Nakatsuji, X. Li, M. Caricato, A. V. Marenich, 
 J. Bloino, B. G. Janesko, R. Gomperts, B. Mennucci, H. P. Hratchian, 
 J. V. Ortiz, A. F. Izmaylov, J. L. Sonnenberg, D. Williams-Young, 
 F. Ding, F. Lipparini, F. Egidi, J. Goings, B. Peng, A. Petrone, 
 T. Henderson, D. Ranasinghe, V. G. Zakrzewski, J. Gao, N. Rega, 
 G. Zheng, W. Liang, M. Hada, M. Ehara, K. Toyota, R. Fukuda, 
 J. Hasegawa, M. Ishida, T. Nakajima, Y. Honda, O. Kitao, H. Nakai, 
 T. Vreven, K. Throssell, J. A. Montgomery, Jr., J. E. Peralta, 
 F. Ogliaro, M. J. Bearpark, J. J. Heyd, E. N. Brothers, K. N. Kudin, 
 V. N. Staroverov, T. A. Keith, R. Kobayashi, J. Normand, 
 K. Raghavachari, A. P. Rendell, J. C. Burant, S. S. Iyengar, 
 J. Tomasi, M. Cossi, J. M. Millam, M. Klene, C. Adamo, R. Cammi, 
 J. W. Ochterski, R. L. Martin, K. Morokuma, O. Farkas, 
 J. B. Foresman, and D. J. Fox, Gaussian, Inc., Wallingford CT, 2016.
 
 ******************************************
 Gaussian 16:  EM64L-G16RevB.01 20-Dec-2017
                 9-Jul-2026 
 ******************************************
 %nproc=64
 Will use up to   64 processors via shared memory.
 -----------------------------------------
 #force b3lyp/3-21G* Geom=PrintInputOrient
 -----------------------------------------
 1/10=7,30=1,38=1/1,3;
 2/9=2000,12=2,17=6,18=5,40=1/2;
 3/5=5,7=1,11=2,25=1,30=1,71=1,74=-5/1,2,3;
 4//1;
 5/5=2,38=5/2;
 6/7=2,8=2,9=2,10=2,28=1/1;
 7/29=1/1,2,3,16;
 1/10=7,30=1/3;
 99//99;
 -------------------------------------------------
 Generated by MDDatasetMaker (Author: Jinzhe Zeng)
 -------------------------------------------------
 Symbolic Z-matrix:
 Charge =  0 Multiplicity = 4
 H                     22.2217   24.3846   21.9745 
 O                     20.5946   24.6993   21.2089 
 O                     19.6718   24.2094   22.4634 
 

 GradGradGradGradGradGradGradGradGradGradGradGradGradGradGradGradGradGrad
 Berny optimization.
 Initialization pass.
 Trust Radius=3.00D-01 FncErr=1.00D-07 GrdErr=1.00D-07 EigMax=2.50D+02 EigMin=1.00D-04
 Number of steps in this run=      2 maximum allowed number of steps=      2.
 GradGradGradGradGradGradGradGradGradGradGradGradGradGradGradGradGradGrad

                          Input orientation:                          
 ---------------------------------------------------------------------
 Center     Atomic      Atomic             Coordinates (Angstroms)
 Number     Number       Type             X           Y           Z
 ---------------------------------------------------------------------
      1          1           0       22.221700   24.384600   21.974500
      2          8           0       20.594600   24.699300   21.208900
      3          8           0       19.671800   24.209400   22.463400
 ---------------------------------------------------------------------
                    Distance matrix (angstroms):
                    1          2          3
     1  H    0.000000
     2  O    1.825550   0.000000
     3  O    2.602251   1.632584   0.000000
 Stoichiometry    HO2(4)
 Framework group  CS[SG(HO2)]
 Deg. of freedom     3
 Full point group                 CS      NOp   2
 Largest Abelian subgroup         CS      NOp   2
 Largest concise Abelian subgroup C1      NOp   1
                         Standard orientation:                         
 ---------------------------------------------------------------------
 Center     Atomic      Atomic             Coordinates (Angstroms)
 Number     Number       Type             X           Y           Z
 ---------------------------------------------------------------------
      1          1           0       -1.703628   -0.991304    0.000000
      2          8           0        0.106477   -0.754336    0.000000
      3          8           0        0.106477    0.878249    0.000000
 ---------------------------------------------------------------------
 Rotational constants (GHZ):         167.2222191          22.3828646          19.7405693
 Standard basis: 3-21G* (6D, 7F)
 There are    16 symmetry adapted cartesian basis functions of A'  symmetry.
 There are     4 symmetry adapted cartesian basis functions of A"  symmetry.
 There are    16 symmetry adapted basis functions of A'  symmetry.
 There are     4 symmetry adapted basis functions of A"  symmetry.
    20 basis functions,    33 primitive gaussians,    20 cartesian basis functions
    10 alpha electrons        7 beta electrons
       nuclear repulsion energy        24.6904290454 Hartrees.
 NAtoms=    3 NActive=    3 NUniq=    3 SFac= 1.00D+00 NAtFMM=   60 NAOKFM=F Big=F
 Integral buffers will be    131072 words long.
 Raffenetti 2 integral format.
 Two-electron integral symmetry is turned on.
 One-electron integrals computed using PRISM.
 PrsmSu:  requested number of processors reduced to:  31 ShMem   1 Linda.
 NBasis=    20 RedAO= T EigKep=  1.30D-01  NBF=    16     4
 NBsUse=    20 1.00D-06 EigRej= -1.00D+00 NBFU=    16     4
 ExpMin= 1.83D-01 ExpMax= 3.22D+02 ExpMxC= 3.22D+02 IAcc=3 IRadAn=         5 AccDes= 0.00D+00
 Harris functional with IExCor=  402 and IRadAn=       5 diagonalized for initial guess.
 HarFok:  IExCor=  402 AccDes= 0.00D+00 IRadAn=         5 IDoV= 1 UseB2=F ITyADJ=14
 ICtDFT=  3500011 ScaDFX=  1.000000  1.000000  1.000000  1.000000
 FoFCou: FMM=F IPFlag=           0 FMFlag=      100000 FMFlg1=           0
         NFxFlg=           0 DoJE=T BraDBF=F KetDBF=T FulRan=T
         wScrn=  0.000000 ICntrl=       500 IOpCl=  0 I1Cent=   200000004 NGrid=           0
         NMat0=    1 NMatS0=      1 NMatT0=    0 NMatD0=    1 NMtDS0=    0 NMtDT0=    0
 Petite list used in FoFCou.
 Initial guess orbital symmetries:
 Alpha Orbitals:
       Occupied  (A') (A') (A') (A') (A') (A') (A") (A') (A") (A')
       Virtual   (A') (A') (A") (A') (A') (A") (A') (A') (A') (A')
 Beta  Orbitals:
       Occupied  (A') (A') (A') (A') (A') (A') (A")
       Virtual   (A') (A") (A') (A') (A') (A") (A') (A') (A") (A')
                 (A') (A') (A')
 The electronic state of the initial guess is 4-A".
 Initial guess <Sx>= 0.0000 <Sy>= 0.0000 <Sz>= 1.5000 <S**2>= 3.7500 S= 1.5000
 Keep R1 and R2 ints in memory in symmetry-blocked form, NReq=55259075.
 Requested convergence on RMS density matrix=1.00D-08 within 128 cycles.
 Requested convergence on MAX density matrix=1.00D-06.
 Requested convergence on             energy=1.00D-06.
 No special actions if energy rises.
 Integral accuracy reduced to 1.0D-05 until final iterations.
 Initial convergence to 1.0D-05 achieved.  Increase integral accuracy.
 SCF Done:  E(UB3LYP) =  -149.903669772     A.U. after   22 cycles
            NFock= 22  Conv=0.55D-08     -V/T= 2.0109
 <Sx>= 0.0000 <Sy>= 0.0000 <Sz>= 1.5000 <S**2>= 3.7584 S= 1.5021
 <L.S>= 0.000000000000E+00
 Annihilation of the first spin contaminant:
 S**2 before annihilation     3.7584,   after     3.7500

 **********************************************************************

            Population analysis using the SCF Density.

 **********************************************************************

 Orbital symmetries:
 Alpha Orbitals:
       Occupied  (A') (A') (A') (A') (A') (A') (A") (A') (A") (A')
       Virtual   (A') (A') (A") (A') (A') (A") (A') (A') (A') (A')
 Beta  Orbitals:
       Occupied  (A') (A') (A') (A') (A') (A') (A")
       Virtual   (A') (A") (A') (A') (A') (A") (A') (A') (A") (A')
                 (A') (A') (A')
 The electronic state is 4-A".
 Alpha  occ. eigenvalues --  -19.21571 -19.20604  -1.09073  -0.92424  -0.47778
 Alpha  occ. eigenvalues --   -0.47326  -0.46139  -0.38957  -0.37072  -0.24073
 Alpha virt. eigenvalues --   -0.12574   0.89536   1.22643   1.25147   1.42240
 Alpha virt. eigenvalues --    1.42389   1.45326   1.48533   2.05958   2.65234
  Beta  occ. eigenvalues --  -19.18656 -19.17836  -1.01587  -0.83348  -0.44016
  Beta  occ. eigenvalues --   -0.36109  -0.34981
  Beta virt. eigenvalues --   -0.18513  -0.18289  -0.08359  -0.02594   1.04662
  Beta virt. eigenvalues --    1.29976   1.33526   1.45311   1.49387   1.50654
  Beta virt. eigenvalues --    1.52013   2.12038   2.70981
          Condensed to atoms (all electrons):
               1          2          3
     1  H    1.080555  -0.024588   0.007828
     2  O   -0.024588   7.828025   0.168096
     3  O    0.007828   0.168096   7.788748
          Atomic-Atomic Spin Densities.
               1          2          3
     1  H    0.988871  -0.092459   0.001645
     2  O   -0.092459   1.172121  -0.095965
     3  O    0.001645  -0.095965   1.212565
 Mulliken charges and spin densities:
               1          2
     1  H   -0.063795   0.898057
     2  O    0.028467   0.983697
     3  O    0.035328   1.118246
 Sum of Mulliken charges =   0.00000   3.00000
 Mulliken charges and spin densities with hydrogens summed into heavy atoms:
               1          2
     2  O   -0.035328   1.881754
     3  O    0.035328   1.118246
 Electronic spatial extent (au):  <R**2>=             77.9867
 Charge=              0.0000 electrons
 Dipole moment (field-independent basis, Debye):
    X=              0.5696    Y=              0.3430    Z=              0.0000  Tot=              0.6649
 Quadrupole moment (field-independent basis, Debye-Ang):
   XX=            -12.0021   YY=            -10.8386   ZZ=            -11.0186
   XY=             -0.5662   XZ=              0.0000   YZ=              0.0000
 Traceless Quadrupole moment (field-independent basis, Debye-Ang):
   XX=             -0.7157   YY=              0.4478   ZZ=              0.2678
   XY=             -0.5662   XZ=              0.0000   YZ=              0.0000
 Octapole moment (field-independent basis, Debye-Ang**2):
  XXX=              5.5794  YYY=              2.4466  ZZZ=              0.0000  XYY=              1.7668
  XXY=              2.1505  XXZ=              0.0000  XZZ=              1.2215  YZZ=              0.4040
  YYZ=              0.0000  XYZ=              0.0000
 Hexadecapole moment (field-independent basis, Debye-Ang**3):
 XXXX=            -33.9589 YYYY=            -50.6091 ZZZZ=             -6.8944 XXXY=             -8.6650
 XXXZ=              0.0000 YYYX=             -7.5640 YYYZ=              0.0000 ZZZX=              0.0000
 ZZZY=              0.0000 XXYY=            -14.9605 XXZZ=             -6.2707 YYZZ=            -10.0181
 XXYZ=              0.0000 YYXZ=              0.0000 ZZXY=             -2.3384
 N-N= 2.469042904544D+01 E-N=-4.033153535058D+02  KE= 1.482932263615D+02
 Symmetry A'   KE= 1.407518045901D+02
 Symmetry A"   KE= 7.541421771350D+00
 Symmetry A'   SP= 2.000000000000D+00
 Symmetry A"   SP= 1.000000000000D+00
                          Isotropic Fermi Contact Couplings
        Atom                 a.u.       MegaHertz       Gauss      10(-4) cm-1
     1  H(1)               0.23773     354.20332     126.38855     118.14951
     2  O(17)              0.27352     -55.26974     -19.72162     -18.43600
     3  O(17)              0.11471     -23.17867      -8.27073      -7.73157
 --------------------------------------------------------
       Center         ----  Spin Dipole Couplings  ----
                      3XX-RR        3YY-RR        3ZZ-RR
 --------------------------------------------------------
     1   Atom        0.029064     -0.008330     -0.020734
     2   Atom        0.155920     -2.105274      1.949354
     3   Atom        2.168940     -1.949333     -0.219608
 --------------------------------------------------------
                        XY            XZ            YZ
 --------------------------------------------------------
     1   Atom        0.017972      0.000000      0.000000
     2   Atom       -0.498744      0.000000      0.000000
     3   Atom       -0.120724      0.000000      0.000000
 --------------------------------------------------------


 ---------------------------------------------------------------------------------
              Anisotropic Spin Dipole Couplings in Principal Axis System
 ---------------------------------------------------------------------------------

       Atom             a.u.   MegaHertz   Gauss  10(-4) cm-1        Axes

              Baa    -0.0207   -11.063    -3.947    -3.690  0.0000  0.0000  1.0000
     1 H(1)   Bbb    -0.0156    -8.306    -2.964    -2.771 -0.3735  0.9276  0.0000
              Bcc     0.0363    19.368     6.911     6.461  0.9276  0.3735  0.0000
 
              Baa    -2.2104   159.943    57.071    53.351  0.2062  0.9785  0.0000
     2 O(17)  Bbb     0.2610   -18.889    -6.740    -6.301  0.9785 -0.2062  0.0000
              Bcc     1.9494  -141.054   -50.332   -47.051  0.0000  0.0000  1.0000
 
              Baa    -1.9529   141.308    50.422    47.135  0.0293  0.9996  0.0000
     3 O(17)  Bbb    -0.2196    15.891     5.670     5.301  0.0000  0.0000  1.0000
              Bcc     2.1725  -157.199   -56.092   -52.436  0.9996 -0.0293  0.0000
 

 ---------------------------------------------------------------------------------

 PrsmSu:  requested number of processors reduced to:  31 ShMem   1 Linda.
 Calling FoFJK, ICntrl=      2127 FMM=F ISym2X=1 I1Cent= 0 IOpClX= 1 NMat=1 NMatS=1 NMatT=0.
 ***** Axes restored to original set *****
 -------------------------------------------------------------------
 Center     Atomic                   Forces (Hartrees/Bohr)
 Number     Number              X              Y              Z
 -------------------------------------------------------------------
      1        1           0.013431260   -0.002098130    0.005057466
      2        8          -0.091207798   -0.040071795    0.102898137
      3        8           0.077776538    0.042169925   -0.107955603
 -------------------------------------------------------------------
 Cartesian Forces:  Max     0.107955603 RMS     0.066837216

 GradGradGradGradGradGradGradGradGradGradGradGradGradGradGradGradGradGrad
 Berny optimization.
 Search for a local minimum.
 Step number   1 out of a maximum of    2
 All quantities printed in internal units (Hartrees-Bohrs-Radians)
 Second derivative matrix not updated -- first step.
 The second derivative matrix:
                          X1        Y1        Z1        X2        Y2
           X1           1.00000
           Y1           0.00000   1.00000
           Z1           0.00000   0.00000   1.00000
           X2           0.00000   0.00000   0.00000   0.74974
           Y2           0.00000   0.00000   0.00000  -0.13286   0.92947
           Z2           0.00000   0.00000   0.00000   0.34021   0.18061
           X3           0.00000   0.00000   0.00000  -0.06924  -0.03676
           Y3           0.00000   0.00000   0.00000  -0.03676  -0.01951
           Z3           0.00000   0.00000   0.00000   0.09412   0.04997
                          Z2        X3        Y3        Z3
           Z2           0.53750
           X3           0.09412   0.74974
           Y3           0.04997  -0.13286   0.92947
           Z3          -0.12796   0.34021   0.18061   0.53750
 ITU=  0
     Eigenvalues ---    0.43341   0.95344   1.00000
 Quadratic step=4.608D-01 exceeds max=3.000D-01 adjusted using Lamda=-2.315D-01.
 Angle between NR and scaled steps=   0.55 degrees.
 Angle between quadratic step and forces=   3.22 degrees.
 ClnCor:  largest displacement from symmetrization is 2.78D-16 for atom     2.
 Linear search not attempted -- first point.
 ClnCor:  largest displacement from symmetrization is 0.00D+00 for atom     0.
 B after Tr=    -0.016943   -0.008976    0.022985
         Rot=    1.000000   -0.000002   -0.000311   -0.000123 Ang=  -0.04 deg.
 Variable       Old X    -DE/DX   Delta X   Delta X   Delta X     New X
                                 (Linear)    (Quad)   (Total)
    X1       41.99293   0.01343   0.00000   0.01199   0.00954  42.00246
    Y1       46.08022  -0.00210   0.00000  -0.00251  -0.00132  46.07889
    Z1       41.52579   0.00506   0.00000   0.00613   0.00317  41.52895
    X2       38.91815  -0.09121   0.00000  -0.12422  -0.12760  38.79055
    Y2       46.67491  -0.04007   0.00000  -0.06269  -0.06228  46.61263
    Z2       40.07901   0.10290   0.00000   0.16063   0.15967  40.23868
    X3       37.17431   0.07778   0.00000   0.11998   0.11807  37.29238
    Y3       45.74914   0.04217   0.00000   0.06357   0.06360  45.81274
    Z3       42.44967  -0.10796   0.00000  -0.16280  -0.16283  42.28684
         Item               Value     Threshold  Converged?
 Maximum Force            0.107956     0.000450     NO 
 RMS     Force            0.066837     0.000300     NO 
 Maximum Displacement     0.162835     0.001800     NO 
 RMS     Displacement     0.100144     0.001200     NO 
 Predicted change in Energy=-4.054607D-02
 GradGradGradGradGradGradGradGradGradGradGradGradGradGradGradGradGradGrad

 1\1\GINC-H08R06\Force\UB3LYP\3-21G*\H1O2(4)\ACKGYDJ0BD\09-Jul-2026\0\\
 #force b3lyp/3-21G* Geom=PrintInputOrient\\Generated by MDDatasetMaker
  (Author: Jinzhe Zeng)\\0,4\H,22.2217,24.3846,21.9745\O,20.5946,24.699
 3,21.2089\O,19.6718,24.2094,22.4634\\Version=EM64L-G16RevB.01\State=4-
 A"\HF=-149.9036698\S2=3.758407\S2-1=0.\S2A=3.750016\RMSD=5.534e-09\RMS
 F=6.684e-02\Dipole=-0.2611275,0.0072661,-0.0136223\Quadrupole=-0.64823
 48,0.2318049,0.4164298,0.0977774,-0.2316728,-0.0843457\PG=CS [SG(H1O2)
 ]\\@


 IT'S WHAT A FELLER THINKS HE KNOWS THAT HURTS HIM...
                    ------
           KIN HUBBARD
 Job cpu time:       0 days  0 hours  2 minutes 43.5 seconds.
 Elapsed time:       0 days  0 hours  0 minutes  3.3 seconds.
 File lengths (MBytes):  RWF=      6 Int=      0 D2E=      0 Chk=      1 Scr=      1
 Normal termination of Gaussian 16 at Thu Jul  9 10:29:22 2026.
