 Entering Gaussian System, Link 0=g16
 Input=loop1_O_05.gjf
 Output=loop1_O_05.log
 Initial command:
 /work/home/ackgydj0bd/apprepo/gaussian/16b.01-none_v1.3/app/g16/l1.exe "/work/home/ackgydj0bd/apprepo/gaussian/16b.01-none_v1.3/app/g16/scratch/Gau-20382.inp" -scrdir="/work/home/ackgydj0bd/apprepo/gaussian/16b.01-none_v1.3/app/g16/scratch/"
 Entering Link 1 = /work/home/ackgydj0bd/apprepo/gaussian/16b.01-none_v1.3/app/g16/l1.exe PID=     20383.
  
 Copyright (c) 1988-2017, Gaussian, Inc.  All Rights Reserved.
  
 This is part of the Gaussian(R) 16 program.  It is based on
 the Gaussian(R) 09 system (copyright 2009, Gaussian, Inc.),
 the Gaussian(R) 03 system (copyright 2003, Gaussian, Inc.),
 the Gaussian(R) 98 system (copyright 1998, Gaussian, Inc.),
 the Gaussian(R) 94 system (copyright 1995, Gaussian, Inc.),
 the Gaussian 92(TM) system (copyright 1992, Gaussian, Inc.),
 the Gaussian 90(TM) system (copyright 1990, Gaussian, Inc.),
 the Gaussian 88(TM) system (copyright 1988, Gaussian, Inc.),
 the Gaussian 86(TM) system (copyright 1986, Carnegie Mellon
 University), and the Gaussian 82(TM) system (copyright 1983,
 Carnegie Mellon University). Gaussian is a federally registered
 trademark of Gaussian, Inc.
  
 This software contains proprietary and confidential information,
 including trade secrets, belonging to Gaussian, Inc.
  
 This software is provided under written license and may be
 used, copied, transmitted, or stored only in accord with that
 written license.
  
 The following legend is applicable only to US Government
 contracts under FAR:
  
                    RESTRICTED RIGHTS LEGEND
  
 Use, reproduction and disclosure by the US Government is
 subject to restrictions as set forth in subparagraphs (a)
 and (c) of the Commercial Computer Software - Restricted
 Rights clause in FAR 52.227-19.
  
 Gaussian, Inc.
 340 Quinnipiac St., Bldg. 40, Wallingford CT 06492
  
  
 ---------------------------------------------------------------
 Warning -- This program may not be used in any manner that
 competes with the business of Gaussian, Inc. or will provide
 assistance to any competitor of Gaussian, Inc.  The licensee
 of this program is prohibited from giving any competitor of
 Gaussian, Inc. access to this program.  By using this program,
 the user acknowledges that Gaussian, Inc. is engaged in the
 business of creating and licensing software in the field of
 computational chemistry and represents and warrants to the
 licensee that it is not a competitor of Gaussian, Inc. and that
 it will not use this program in any manner prohibited above.
 ---------------------------------------------------------------
  

 Cite this work as:
 Gaussian 16, Revision B.01,
 M. J. Frisch, G. W. Trucks, H. B. Schlegel, G. E. Scuseria, 
 M. A. Robb, J. R. Cheeseman, G. Scalmani, V. Barone, 
 G. A. Petersson, H. Nakatsuji, X. Li, M. Caricato, A. V. Marenich, 
 J. Bloino, B. G. Janesko, R. Gomperts, B. Mennucci, H. P. Hratchian, 
 J. V. Ortiz, A. F. Izmaylov, J. L. Sonnenberg, D. Williams-Young, 
 F. Ding, F. Lipparini, F. Egidi, J. Goings, B. Peng, A. Petrone, 
 T. Henderson, D. Ranasinghe, V. G. Zakrzewski, J. Gao, N. Rega, 
 G. Zheng, W. Liang, M. Hada, M. Ehara, K. Toyota, R. Fukuda, 
 J. Hasegawa, M. Ishida, T. Nakajima, Y. Honda, O. Kitao, H. Nakai, 
 T. Vreven, K. Throssell, J. A. Montgomery, Jr., J. E. Peralta, 
 F. Ogliaro, M. J. Bearpark, J. J. Heyd, E. N. Brothers, K. N. Kudin, 
 V. N. Staroverov, T. A. Keith, R. Kobayashi, J. Normand, 
 K. Raghavachari, A. P. Rendell, J. C. Burant, S. S. Iyengar, 
 J. Tomasi, M. Cossi, J. M. Millam, M. Klene, C. Adamo, R. Cammi, 
 J. W. Ochterski, R. L. Martin, K. Morokuma, O. Farkas, 
 J. B. Foresman, and D. J. Fox, Gaussian, Inc., Wallingford CT, 2016.
 
 ******************************************
 Gaussian 16:  EM64L-G16RevB.01 20-Dec-2017
                 9-Jul-2026 
 ******************************************
 %nproc=64
 Will use up to   64 processors via shared memory.
 -----------------------------------------
 #force b3lyp/3-21G* Geom=PrintInputOrient
 -----------------------------------------
 1/10=7,30=1,38=1/1,3;
 2/9=2000,12=2,17=6,18=5,40=1/2;
 3/5=5,7=1,11=2,25=1,30=1,71=1,74=-5/1,2,3;
 4//1;
 5/5=2,38=5/2;
 6/7=2,8=2,9=2,10=2,28=1/1;
 7/29=1/1,2,3,16;
 1/10=7,30=1/3;
 99//99;
 -------------------------------------------------
 Generated by MDDatasetMaker (Author: Jinzhe Zeng)
 -------------------------------------------------
 Symbolic Z-matrix:
 Charge =  0 Multiplicity = 3
 O                     23.0617   7.15216   16.5703 
 O                     25.1081   6.45448   17.0038 
 O                     24.7839   7.61688   15.8686 
 O                     23.0145   5.33382   16.8958 
 

 GradGradGradGradGradGradGradGradGradGradGradGradGradGradGradGradGradGrad
 Berny optimization.
 Initialization pass.
 Trust Radius=3.00D-01 FncErr=1.00D-07 GrdErr=1.00D-07 EigMax=2.50D+02 EigMin=1.00D-04
 Number of steps in this run=      2 maximum allowed number of steps=      2.
 GradGradGradGradGradGradGradGradGradGradGradGradGradGradGradGradGradGrad

                          Input orientation:                          
 ---------------------------------------------------------------------
 Center     Atomic      Atomic             Coordinates (Angstroms)
 Number     Number       Type             X           Y           Z
 ---------------------------------------------------------------------
      1          8           0       23.061700    7.152160   16.570300
      2          8           0       25.108100    6.454480   17.003800
      3          8           0       24.783900    7.616880   15.868600
      4          8           0       23.014500    5.333820   16.895800
 ---------------------------------------------------------------------
                    Distance matrix (angstroms):
                    1          2          3          4
     1  O    0.000000
     2  O    2.205092   0.000000
     3  O    1.916852   1.656792   0.000000
     4  O    1.847847   2.377121   3.065661   0.000000
 Stoichiometry    O4(3)
 Framework group  C1[X(O4)]
 Deg. of freedom     6
 Full point group                 C1      NOp   1
 Largest Abelian subgroup         C1      NOp   1
 Largest concise Abelian subgroup C1      NOp   1
                         Standard orientation:                         
 ---------------------------------------------------------------------
 Center     Atomic      Atomic             Coordinates (Angstroms)
 Number     Number       Type             X           Y           Z
 ---------------------------------------------------------------------
      1          8           0       -0.354292   -0.964091   -0.271571
      2          8           0        0.598382    1.023949   -0.221166
      3          8           0        1.376487   -0.350772    0.278487
      4          8           0       -1.620577    0.290914    0.214250
 ---------------------------------------------------------------------
 Rotational constants (GHZ):          12.9932654           6.0175361           4.3943556
 Standard basis: 3-21G* (6D, 7F)
 There are    36 symmetry adapted cartesian basis functions of A   symmetry.
 There are    36 symmetry adapted basis functions of A   symmetry.
    36 basis functions,    60 primitive gaussians,    36 cartesian basis functions
    17 alpha electrons       15 beta electrons
       nuclear repulsion energy        97.0909596367 Hartrees.
 NAtoms=    4 NActive=    4 NUniq=    4 SFac= 1.00D+00 NAtFMM=   60 NAOKFM=F Big=F
 Integral buffers will be    131072 words long.
 Raffenetti 2 integral format.
 Two-electron integral symmetry is turned on.
 One-electron integrals computed using PRISM.
 PrsmSu:  requested number of processors reduced to:  31 ShMem   1 Linda.
 NBasis=    36 RedAO= T EigKep=  1.30D-01  NBF=    36
 NBsUse=    36 1.00D-06 EigRej= -1.00D+00 NBFU=    36
 ExpMin= 3.74D-01 ExpMax= 3.22D+02 ExpMxC= 3.22D+02 IAcc=3 IRadAn=         5 AccDes= 0.00D+00
 Harris functional with IExCor=  402 and IRadAn=       5 diagonalized for initial guess.
 HarFok:  IExCor=  402 AccDes= 0.00D+00 IRadAn=         5 IDoV= 1 UseB2=F ITyADJ=14
 ICtDFT=  3500011 ScaDFX=  1.000000  1.000000  1.000000  1.000000
 FoFCou: FMM=F IPFlag=           0 FMFlag=      100000 FMFlg1=           0
         NFxFlg=           0 DoJE=T BraDBF=F KetDBF=T FulRan=T
         wScrn=  0.000000 ICntrl=       500 IOpCl=  0 I1Cent=   200000004 NGrid=           0
         NMat0=    1 NMatS0=      1 NMatT0=    0 NMatD0=    1 NMtDS0=    0 NMtDT0=    0
 Petite list used in FoFCou.
 Initial guess <Sx>= 0.0000 <Sy>= 0.0000 <Sz>= 1.0000 <S**2>= 2.0000 S= 1.0000
 Keep R1 and R2 ints in memory in canonical form, NReq=55739894.
 Requested convergence on RMS density matrix=1.00D-08 within 128 cycles.
 Requested convergence on MAX density matrix=1.00D-06.
 Requested convergence on             energy=1.00D-06.
 No special actions if energy rises.
 Integral accuracy reduced to 1.0D-05 until final iterations.
 EnCoef did     1 forward-backward iterations
 Problem detected with inexpensive integrals.
 Switching to full accuracy and repeating last cycle.
 EnCoef did     2 forward-backward iterations
 EnCoef did   100 forward-backward iterations
 EnCoef did   100 forward-backward iterations
 EnCoef did     4 forward-backward iterations
 EnCoef did     2 forward-backward iterations
 EnCoef did     9 forward-backward iterations
 SCF Done:  E(UB3LYP) =  -298.757101994     A.U. after   56 cycles
            NFock= 56  Conv=0.95D-08     -V/T= 2.0105
 <Sx>= 0.0000 <Sy>= 0.0000 <Sz>= 1.0000 <S**2>= 2.9609 S= 1.2919
 <L.S>= 0.000000000000E+00
 Annihilation of the first spin contaminant:
 S**2 before annihilation     2.9609,   after     2.3886

 **********************************************************************

            Population analysis using the SCF Density.

 **********************************************************************

 Orbital symmetries:
 Alpha Orbitals:
       Occupied  (A) (A) (A) (A) (A) (A) (A) (A) (A) (A) (A) (A)
                 (A) (A) (A) (A) (A)
       Virtual   (A) (A) (A) (A) (A) (A) (A) (A) (A) (A) (A) (A)
                 (A) (A) (A) (A) (A) (A) (A)
 Beta  Orbitals:
       Occupied  (A) (A) (A) (A) (A) (A) (A) (A) (A) (A) (A) (A)
                 (A) (A) (A)
       Virtual   (A) (A) (A) (A) (A) (A) (A) (A) (A) (A) (A) (A)
                 (A) (A) (A) (A) (A) (A) (A) (A) (A)
 The electronic state is 3-A.
 Alpha  occ. eigenvalues --  -19.19615 -19.19118 -19.18159 -19.16604  -1.07572
 Alpha  occ. eigenvalues --   -0.99896  -0.92390  -0.87423  -0.48712  -0.45880
 Alpha  occ. eigenvalues --   -0.44066  -0.43197  -0.38939  -0.37131  -0.35830
 Alpha  occ. eigenvalues --   -0.33069  -0.31859
 Alpha virt. eigenvalues --   -0.17837  -0.14647  -0.11490   1.14295   1.20109
 Alpha virt. eigenvalues --    1.29820   1.32921   1.38265   1.39523   1.42617
 Alpha virt. eigenvalues --    1.45607   1.49118   1.53790   1.56336   1.66869
 Alpha virt. eigenvalues --    1.95346   2.33296   2.61361   2.82191
  Beta  occ. eigenvalues --  -19.20306 -19.18037 -19.16689 -19.13436  -1.05735
  Beta  occ. eigenvalues --   -0.95375  -0.86770  -0.83642  -0.45444  -0.44870
  Beta  occ. eigenvalues --   -0.42150  -0.36830  -0.36188  -0.30896  -0.29377
  Beta virt. eigenvalues --   -0.18990  -0.16598  -0.13904  -0.12054  -0.10011
  Beta virt. eigenvalues --    1.20478   1.23292   1.30565   1.36501   1.38443
  Beta virt. eigenvalues --    1.43502   1.44349   1.47430   1.51299   1.57129
  Beta virt. eigenvalues --    1.60205   1.68622   1.98137   2.37717   2.64489
  Beta virt. eigenvalues --    2.82845
          Condensed to atoms (all electrons):
               1          2          3          4
     1  O    7.838324   0.001673   0.066716   0.099429
     2  O    0.001673   7.844000   0.133913   0.012708
     3  O    0.066716   0.133913   7.796857  -0.000597
     4  O    0.099429   0.012708  -0.000597   7.893134
          Atomic-Atomic Spin Densities.
               1          2          3          4
     1  O    0.045358  -0.029713   0.016761   0.001198
     2  O   -0.029713   1.201536  -0.010736  -0.017789
     3  O    0.016761  -0.010736  -0.493013  -0.000114
     4  O    0.001198  -0.017789  -0.000114   1.326909
 Mulliken charges and spin densities:
               1          2
     1  O   -0.006142   0.033604
     2  O    0.007706   1.143297
     3  O    0.003111  -0.487103
     4  O   -0.004675   1.310203
 Sum of Mulliken charges =   0.00000   2.00000
 Mulliken charges and spin densities with hydrogens summed into heavy atoms:
               1          2
     1  O   -0.006142   0.033604
     2  O    0.007706   1.143297
     3  O    0.003111  -0.487103
     4  O   -0.004675   1.310203
 Electronic spatial extent (au):  <R**2>=            255.5309
 Charge=              0.0000 electrons
 Dipole moment (field-independent basis, Debye):
    X=              0.1399    Y=              0.0586    Z=              0.0558  Tot=              0.1617
 Quadrupole moment (field-independent basis, Debye-Ang):
   XX=            -18.8490   YY=            -18.8237   ZZ=            -20.2801
   XY=              0.1312   XZ=              0.1619   YZ=              0.3340
 Traceless Quadrupole moment (field-independent basis, Debye-Ang):
   XX=              0.4686   YY=              0.4939   ZZ=             -0.9625
   XY=              0.1312   XZ=              0.1619   YZ=              0.3340
 Octapole moment (field-independent basis, Debye-Ang**2):
  XXX=             -1.1192  YYY=              0.4966  ZZZ=             -0.2404  XYY=             -0.3780
  XXY=             -0.4887  XXZ=              1.2496  XZZ=              0.2592  YZZ=              0.1698
  YYZ=              0.1756  XYZ=             -0.0839
 Hexadecapole moment (field-independent basis, Debye-Ang**3):
 XXXX=           -149.0072 YYYY=            -71.0401 ZZZZ=            -19.3136 XXXY=              0.1051
 XXXZ=             -0.4145 YYYX=             -0.8684 YYYZ=              0.7640 ZZZX=              0.1472
 ZZZY=             -0.0568 XXYY=            -36.7883 XXZZ=            -30.2872 YYZZ=            -15.4406
 XXYZ=              0.9489 YYXZ=              0.5322 ZZXY=             -0.2293
 N-N= 9.709095963670D+01 E-N=-9.005434379771D+02  KE= 2.956388633154D+02
                          Isotropic Fermi Contact Couplings
        Atom                 a.u.       MegaHertz       Gauss      10(-4) cm-1
     1  O(17)              0.04007     -12.14603      -4.33400      -4.05148
     2  O(17)              0.07952     -24.10384      -8.60085      -8.04018
     3  O(17)              0.01709      -5.17924      -1.84808      -1.72761
     4  O(17)              0.04718     -14.29962      -5.10246      -4.76984
 --------------------------------------------------------
       Center         ----  Spin Dipole Couplings  ----
                      3XX-RR        3YY-RR        3ZZ-RR
 --------------------------------------------------------
     1   Atom        0.492103      1.231278     -1.723381
     2   Atom       -0.836527      0.109718      0.726809
     3   Atom       -1.571503     -0.175686      1.747189
     4   Atom        0.793025      0.832396     -1.625421
 --------------------------------------------------------
                        XY            XZ            YZ
 --------------------------------------------------------
     1   Atom        2.613256     -0.053886     -1.176949
     2   Atom        0.953573      1.287166      1.271119
     3   Atom       -0.532185      1.238638      1.298244
     4   Atom        1.754297     -1.180735      1.023604
 --------------------------------------------------------


 ---------------------------------------------------------------------------------
              Anisotropic Spin Dipole Couplings in Principal Axis System
 ---------------------------------------------------------------------------------

       Atom             a.u.   MegaHertz   Gauss  10(-4) cm-1        Axes

              Baa    -2.5533   184.758    65.926    61.629 -0.4423  0.5303  0.7233
     1 O(17)  Bbb    -1.1091    80.250    28.635    26.769  0.6400 -0.3784  0.6687
              Bcc     3.6624  -265.008   -94.562   -88.397  0.6283  0.7587 -0.1721
 
              Baa    -1.6084   116.380    41.527    38.820  0.9000 -0.2218 -0.3753
     2 O(17)  Bbb    -0.8875    64.218    22.915    21.421 -0.0494  0.8035 -0.5933
              Bcc     2.4959  -180.598   -64.442   -60.241  0.4332  0.5525  0.7121
 
              Baa    -2.4048   174.007    62.090    58.042  0.8269  0.4171 -0.3771
     3 O(17)  Bbb    -0.1913    13.842     4.939     4.617 -0.5180  0.8260 -0.2223
              Bcc     2.5960  -187.848   -67.029   -62.659  0.2188  0.3791  0.8991
 
              Baa    -2.8811   208.472    74.388    69.539  0.4558 -0.4301  0.7793
     4 O(17)  Bbb     0.3110   -22.500    -8.029    -7.505 -0.5341  0.5681  0.6260
              Bcc     2.5701  -185.971   -66.359   -62.033  0.7120  0.7016 -0.0292
 

 ---------------------------------------------------------------------------------

 PrsmSu:  requested number of processors reduced to:  31 ShMem   1 Linda.
 Calling FoFJK, ICntrl=      2127 FMM=F ISym2X=0 I1Cent= 0 IOpClX= 1 NMat=1 NMatS=1 NMatT=0.
 ***** Axes restored to original set *****
 -------------------------------------------------------------------
 Center     Atomic                   Forces (Hartrees/Bohr)
 Number     Number              X              Y              Z
 -------------------------------------------------------------------
      1        8           0.023027931   -0.043516905   -0.004777019
      2        8          -0.010549295    0.053551349   -0.054364303
      3        8          -0.023142962   -0.075081466    0.073009834
      4        8           0.010664326    0.065047021   -0.013868512
 -------------------------------------------------------------------
 Cartesian Forces:  Max     0.075081466 RMS     0.045112615

 GradGradGradGradGradGradGradGradGradGradGradGradGradGradGradGradGradGrad
 Berny optimization.
 Search for a local minimum.
 Step number   1 out of a maximum of    2
 All quantities printed in internal units (Hartrees-Bohrs-Radians)
 Second derivative matrix not updated -- first step.
 The second derivative matrix:
                          X1        Y1        Z1        X2        Y2
           X1           1.00000
           Y1           0.00000   1.00000
           Z1           0.00000   0.00000   1.00000
           X2           0.00000   0.00000   0.00000   0.00775
           Y2           0.00000   0.00000   0.00000  -0.02780   0.09967
           Z2           0.00000   0.00000   0.00000   0.02715  -0.09734
           X3           0.00000   0.00000   0.00000  -0.00775   0.02780
           Y3           0.00000   0.00000   0.00000   0.02780  -0.09967
           Z3           0.00000   0.00000   0.00000  -0.02715   0.09734
           X4           0.00000   0.00000   0.00000   0.00000   0.00000
           Y4           0.00000   0.00000   0.00000   0.00000   0.00000
           Z4           0.00000   0.00000   0.00000   0.00000   0.00000
                          Z2        X3        Y3        Z3        X4
           Z2           0.09506
           X3          -0.02715   0.00775
           Y3           0.09734  -0.02780   0.09967
           Z3          -0.09506   0.02715  -0.09734   0.09506
           X4           0.00000   0.00000   0.00000   0.00000   1.00000
           Y4           0.00000   0.00000   0.00000   0.00000   0.00000
           Z4           0.00000   0.00000   0.00000   0.00000   0.00000
                          Y4        Z4
           Y4           1.00000
           Z4           0.00000   1.00000
 ITU=  0
     Eigenvalues ---    0.10965   0.40498   0.48602   0.50000   0.86746
     Eigenvalues ---    1.00000
 Quadratic step=4.656D-01 exceeds max=3.000D-01 adjusted using Lamda=-1.202D-01.
 Angle between NR and scaled steps=  13.72 degrees.
 Angle between quadratic step and forces=  22.92 degrees.
 Linear search not attempted -- first point.
 B after Tr=     0.000000    0.000000    0.000000
         Rot=    1.000000    0.000000    0.000000    0.000000 Ang=   0.00 deg.
 Variable       Old X    -DE/DX   Delta X   Delta X   Delta X     New X
                                 (Linear)    (Quad)   (Total)
    X1       43.58030   0.02303   0.00000   0.03318   0.03318  43.61348
    Y1       13.51562  -0.04352   0.00000  -0.01714  -0.01714  13.49848
    Z1       31.31333  -0.00478   0.00000  -0.02854  -0.02854  31.28479
    X2       47.44743  -0.01055   0.00000   0.04626   0.04626  47.49370
    Y2       12.19720   0.05355   0.00000   0.10725   0.10725  12.30445
    Z2       32.13253  -0.05436   0.00000  -0.08830  -0.08830  32.04423
    X3       46.83478  -0.02314   0.00000  -0.08358  -0.08358  46.75121
    Y3       14.39382  -0.07508   0.00000  -0.17089  -0.17089  14.22293
    Z3       29.98731   0.07301   0.00000   0.15048   0.15048  30.13779
    X4       43.49110   0.01066   0.00000   0.00413   0.00413  43.49524
    Y4       10.07946   0.06505   0.00000   0.08078   0.08078  10.16024
    Z4       31.92843  -0.01387   0.00000  -0.03364  -0.03364  31.89480
         Item               Value     Threshold  Converged?
 Maximum Force            0.075081     0.000450     NO 
 RMS     Force            0.045113     0.000300     NO 
 Maximum Displacement     0.170885     0.001800     NO 
 RMS     Displacement     0.086676     0.001200     NO 
 Predicted change in Energy=-2.702662D-02
 GradGradGradGradGradGradGradGradGradGradGradGradGradGradGradGradGradGrad

 1\1\GINC-H08R06\Force\UB3LYP\3-21G*\O4(3)\ACKGYDJ0BD\09-Jul-2026\0\\#f
 orce b3lyp/3-21G* Geom=PrintInputOrient\\Generated by MDDatasetMaker (
 Author: Jinzhe Zeng)\\0,3\O,23.0617,7.15216,16.5703\O,25.1081,6.45448,
 17.0038\O,24.7839,7.61688,15.8686\O,23.0145,5.33382,16.8958\\Version=E
 M64L-G16RevB.01\State=3-A\HF=-298.757102\S2=2.9609\S2-1=0.\S2A=2.38857
 1\RMSD=9.484e-09\RMSF=4.511e-02\Dipole=0.0574886,0.0105566,-0.0250674\
 Quadrupole=0.483939,0.1517564,-0.6356954,-0.09698,-0.146746,-0.3289395
 \PG=C01 [X(O4)]\\@


 THOSE WHO ASPIRE NOT TO GUESS AND DIVINE,
 BUT TO DISCOVER AND KNOW, WHO PROPOSE NOT TO DEVISE 
 MIMIC AND FABULOUS WORLDS OF THEIR OWN, BUT TO 
 EXAMINE AND DISSECT THE NATURE OF THIS VERY WORLD 
 ITSELF, MUST GO TO THE FACTS THEMSELVES FOR EVERYTHING.

                               -- FRANCIS BACON, 1620
 Job cpu time:       0 days  0 hours  3 minutes 26.1 seconds.
 Elapsed time:       0 days  0 hours  0 minutes  4.0 seconds.
 File lengths (MBytes):  RWF=      6 Int=      0 D2E=      0 Chk=      1 Scr=      1
 Normal termination of Gaussian 16 at Thu Jul  9 10:29:06 2026.
