 Entering Gaussian System, Link 0=g16
 Input=loop1_O1_04.gjf
 Output=loop1_O1_04.log
 Initial command:
 /work/home/ackgydj0bd/apprepo/gaussian/16b.01-none_v1.3/app/g16/l1.exe "/work/home/ackgydj0bd/apprepo/gaussian/16b.01-none_v1.3/app/g16/scratch/Gau-27908.inp" -scrdir="/work/home/ackgydj0bd/apprepo/gaussian/16b.01-none_v1.3/app/g16/scratch/"
 Entering Link 1 = /work/home/ackgydj0bd/apprepo/gaussian/16b.01-none_v1.3/app/g16/l1.exe PID=     27909.
  
 Copyright (c) 1988-2017, Gaussian, Inc.  All Rights Reserved.
  
 This is part of the Gaussian(R) 16 program.  It is based on
 the Gaussian(R) 09 system (copyright 2009, Gaussian, Inc.),
 the Gaussian(R) 03 system (copyright 2003, Gaussian, Inc.),
 the Gaussian(R) 98 system (copyright 1998, Gaussian, Inc.),
 the Gaussian(R) 94 system (copyright 1995, Gaussian, Inc.),
 the Gaussian 92(TM) system (copyright 1992, Gaussian, Inc.),
 the Gaussian 90(TM) system (copyright 1990, Gaussian, Inc.),
 the Gaussian 88(TM) system (copyright 1988, Gaussian, Inc.),
 the Gaussian 86(TM) system (copyright 1986, Carnegie Mellon
 University), and the Gaussian 82(TM) system (copyright 1983,
 Carnegie Mellon University). Gaussian is a federally registered
 trademark of Gaussian, Inc.
  
 This software contains proprietary and confidential information,
 including trade secrets, belonging to Gaussian, Inc.
  
 This software is provided under written license and may be
 used, copied, transmitted, or stored only in accord with that
 written license.
  
 The following legend is applicable only to US Government
 contracts under FAR:
  
                    RESTRICTED RIGHTS LEGEND
  
 Use, reproduction and disclosure by the US Government is
 subject to restrictions as set forth in subparagraphs (a)
 and (c) of the Commercial Computer Software - Restricted
 Rights clause in FAR 52.227-19.
  
 Gaussian, Inc.
 340 Quinnipiac St., Bldg. 40, Wallingford CT 06492
  
  
 ---------------------------------------------------------------
 Warning -- This program may not be used in any manner that
 competes with the business of Gaussian, Inc. or will provide
 assistance to any competitor of Gaussian, Inc.  The licensee
 of this program is prohibited from giving any competitor of
 Gaussian, Inc. access to this program.  By using this program,
 the user acknowledges that Gaussian, Inc. is engaged in the
 business of creating and licensing software in the field of
 computational chemistry and represents and warrants to the
 licensee that it is not a competitor of Gaussian, Inc. and that
 it will not use this program in any manner prohibited above.
 ---------------------------------------------------------------
  

 Cite this work as:
 Gaussian 16, Revision B.01,
 M. J. Frisch, G. W. Trucks, H. B. Schlegel, G. E. Scuseria, 
 M. A. Robb, J. R. Cheeseman, G. Scalmani, V. Barone, 
 G. A. Petersson, H. Nakatsuji, X. Li, M. Caricato, A. V. Marenich, 
 J. Bloino, B. G. Janesko, R. Gomperts, B. Mennucci, H. P. Hratchian, 
 J. V. Ortiz, A. F. Izmaylov, J. L. Sonnenberg, D. Williams-Young, 
 F. Ding, F. Lipparini, F. Egidi, J. Goings, B. Peng, A. Petrone, 
 T. Henderson, D. Ranasinghe, V. G. Zakrzewski, J. Gao, N. Rega, 
 G. Zheng, W. Liang, M. Hada, M. Ehara, K. Toyota, R. Fukuda, 
 J. Hasegawa, M. Ishida, T. Nakajima, Y. Honda, O. Kitao, H. Nakai, 
 T. Vreven, K. Throssell, J. A. Montgomery, Jr., J. E. Peralta, 
 F. Ogliaro, M. J. Bearpark, J. J. Heyd, E. N. Brothers, K. N. Kudin, 
 V. N. Staroverov, T. A. Keith, R. Kobayashi, J. Normand, 
 K. Raghavachari, A. P. Rendell, J. C. Burant, S. S. Iyengar, 
 J. Tomasi, M. Cossi, J. M. Millam, M. Klene, C. Adamo, R. Cammi, 
 J. W. Ochterski, R. L. Martin, K. Morokuma, O. Farkas, 
 J. B. Foresman, and D. J. Fox, Gaussian, Inc., Wallingford CT, 2016.
 
 ******************************************
 Gaussian 16:  EM64L-G16RevB.01 20-Dec-2017
                 9-Jul-2026 
 ******************************************
 %nproc=64
 Will use up to   64 processors via shared memory.
 -----------------------------------------
 #force b3lyp/3-21G* Geom=PrintInputOrient
 -----------------------------------------
 1/10=7,30=1,38=1/1,3;
 2/9=2000,12=2,17=6,18=5,40=1/2;
 3/5=5,7=1,11=2,25=1,30=1,71=1,74=-5/1,2,3;
 4//1;
 5/5=2,38=5/2;
 6/7=2,8=2,9=2,10=2,28=1/1;
 7/29=1/1,2,3,16;
 1/10=7,30=1/3;
 99//99;
 -------------------------------------------------
 Generated by MDDatasetMaker (Author: Jinzhe Zeng)
 -------------------------------------------------
 Symbolic Z-matrix:
 Charge =  0 Multiplicity = 4
 H                     12.9399   25.2214   17.4122 
 O                     11.5457   26.9815   18.0015 
 O                     12.0546   25.8671   18.4115 
 

 GradGradGradGradGradGradGradGradGradGradGradGradGradGradGradGradGradGrad
 Berny optimization.
 Initialization pass.
 Trust Radius=3.00D-01 FncErr=1.00D-07 GrdErr=1.00D-07 EigMax=2.50D+02 EigMin=1.00D-04
 Number of steps in this run=      2 maximum allowed number of steps=      2.
 GradGradGradGradGradGradGradGradGradGradGradGradGradGradGradGradGradGrad

                          Input orientation:                          
 ---------------------------------------------------------------------
 Center     Atomic      Atomic             Coordinates (Angstroms)
 Number     Number       Type             X           Y           Z
 ---------------------------------------------------------------------
      1          1           0       12.939900   25.221400   17.412200
      2          8           0       11.545700   26.981500   18.001500
      3          8           0       12.054600   25.867100   18.411500
 ---------------------------------------------------------------------
                    Distance matrix (angstroms):
                    1          2          3
     1  H    0.000000
     2  O    2.321426   0.000000
     3  O    1.482999   1.291885   0.000000
 Stoichiometry    HO2(4)
 Framework group  CS[SG(HO2)]
 Deg. of freedom     3
 Full point group                 CS      NOp   2
 Largest Abelian subgroup         CS      NOp   2
 Largest concise Abelian subgroup C1      NOp   1
                         Standard orientation:                         
 ---------------------------------------------------------------------
 Center     Atomic      Atomic             Coordinates (Angstroms)
 Number     Number       Type             X           Y           Z
 ---------------------------------------------------------------------
      1          1           0       -1.281125    1.161908    0.000000
      2          8           0        0.080070   -0.718562    0.000000
      3          8           0        0.080070    0.573323    0.000000
 ---------------------------------------------------------------------
 Rotational constants (GHZ):         314.5717676          33.6016202          30.3587851
 Standard basis: 3-21G* (6D, 7F)
 There are    16 symmetry adapted cartesian basis functions of A'  symmetry.
 There are     4 symmetry adapted cartesian basis functions of A"  symmetry.
 There are    16 symmetry adapted basis functions of A'  symmetry.
 There are     4 symmetry adapted basis functions of A"  symmetry.
    20 basis functions,    33 primitive gaussians,    20 cartesian basis functions
    10 alpha electrons        7 beta electrons
       nuclear repulsion energy        30.8937096032 Hartrees.
 NAtoms=    3 NActive=    3 NUniq=    3 SFac= 1.00D+00 NAtFMM=   60 NAOKFM=F Big=F
 Integral buffers will be    131072 words long.
 Raffenetti 2 integral format.
 Two-electron integral symmetry is turned on.
 One-electron integrals computed using PRISM.
 PrsmSu:  requested number of processors reduced to:  31 ShMem   1 Linda.
 NBasis=    20 RedAO= T EigKep=  6.22D-02  NBF=    16     4
 NBsUse=    20 1.00D-06 EigRej= -1.00D+00 NBFU=    16     4
 ExpMin= 1.83D-01 ExpMax= 3.22D+02 ExpMxC= 3.22D+02 IAcc=3 IRadAn=         5 AccDes= 0.00D+00
 Harris functional with IExCor=  402 and IRadAn=       5 diagonalized for initial guess.
 HarFok:  IExCor=  402 AccDes= 0.00D+00 IRadAn=         5 IDoV= 1 UseB2=F ITyADJ=14
 ICtDFT=  3500011 ScaDFX=  1.000000  1.000000  1.000000  1.000000
 FoFCou: FMM=F IPFlag=           0 FMFlag=      100000 FMFlg1=           0
         NFxFlg=           0 DoJE=T BraDBF=F KetDBF=T FulRan=T
         wScrn=  0.000000 ICntrl=       500 IOpCl=  0 I1Cent=   200000004 NGrid=           0
         NMat0=    1 NMatS0=      1 NMatT0=    0 NMatD0=    1 NMtDS0=    0 NMtDT0=    0
 Petite list used in FoFCou.
 Initial guess orbital symmetries:
 Alpha Orbitals:
       Occupied  (A') (A') (A') (A') (A') (A') (A") (A') (A") (A')
       Virtual   (A') (A') (A") (A') (A') (A") (A') (A') (A') (A')
 Beta  Orbitals:
       Occupied  (A') (A') (A') (A') (A') (A') (A")
       Virtual   (A') (A") (A') (A') (A') (A") (A') (A') (A") (A')
                 (A') (A') (A')
 The electronic state of the initial guess is 4-A".
 Initial guess <Sx>= 0.0000 <Sy>= 0.0000 <Sz>= 1.5000 <S**2>= 3.7500 S= 1.5000
 Keep R1 and R2 ints in memory in symmetry-blocked form, NReq=55259075.
 Requested convergence on RMS density matrix=1.00D-08 within 128 cycles.
 Requested convergence on MAX density matrix=1.00D-06.
 Requested convergence on             energy=1.00D-06.
 No special actions if energy rises.
 Integral accuracy reduced to 1.0D-05 until final iterations.
 Initial convergence to 1.0D-05 achieved.  Increase integral accuracy.
 SCF Done:  E(UB3LYP) =  -149.938673886     A.U. after   14 cycles
            NFock= 14  Conv=0.77D-08     -V/T= 2.0066
 <Sx>= 0.0000 <Sy>= 0.0000 <Sz>= 1.5000 <S**2>= 3.7549 S= 1.5012
 <L.S>= 0.000000000000E+00
 Annihilation of the first spin contaminant:
 S**2 before annihilation     3.7549,   after     3.7500

 **********************************************************************

            Population analysis using the SCF Density.

 **********************************************************************

 Orbital symmetries:
 Alpha Orbitals:
       Occupied  (A') (A') (A') (A') (A') (A") (A') (A') (A") (A')
       Virtual   (A') (A') (A") (A') (A') (A") (A') (A') (A') (A')
 Beta  Orbitals:
       Occupied  (A') (A') (A') (A') (A') (A') (A")
       Virtual   (A') (A") (A') (A') (A') (A") (A') (A') (A") (A')
                 (A') (A') (A')
 The electronic state is 4-A".
 Alpha  occ. eigenvalues --  -19.22781 -19.20865  -1.28259  -0.87433  -0.57528
 Alpha  occ. eigenvalues --   -0.54978  -0.53997  -0.37346  -0.33993  -0.18557
 Alpha virt. eigenvalues --    0.09104   0.85000   1.24337   1.25845   1.31663
 Alpha virt. eigenvalues --    1.40246   1.47588   1.58261   2.22685   2.68330
  Beta  occ. eigenvalues --  -19.19748 -19.17776  -1.21539  -0.77957  -0.50350
  Beta  occ. eigenvalues --   -0.45223  -0.44101
  Beta virt. eigenvalues --   -0.16877  -0.14267   0.02835   0.14327   0.99868
  Beta virt. eigenvalues --    1.31928   1.32089   1.36339   1.47422   1.53805
  Beta virt. eigenvalues --    1.62285   2.28644   2.74238
          Condensed to atoms (all electrons):
               1          2          3
     1  H    1.212439   0.014411  -0.147062
     2  O    0.014411   7.854859   0.075022
     3  O   -0.147062   0.075022   8.047959
          Atomic-Atomic Spin Densities.
               1          2          3
     1  H    1.145974   0.012932  -0.237674
     2  O    0.012932   1.354644  -0.267713
     3  O   -0.237674  -0.267713   1.484290
 Mulliken charges and spin densities:
               1          2
     1  H   -0.079788   0.921232
     2  O    0.055707   1.099864
     3  O    0.024081   0.978904
 Sum of Mulliken charges =   0.00000   3.00000
 Mulliken charges and spin densities with hydrogens summed into heavy atoms:
               1          2
     2  O    0.055707   1.099864
     3  O   -0.055707   1.900136
 Electronic spatial extent (au):  <R**2>=             61.3847
 Charge=              0.0000 electrons
 Dipole moment (field-independent basis, Debye):
    X=              0.7409    Y=             -0.6597    Z=              0.0000  Tot=              0.9920
 Quadrupole moment (field-independent basis, Debye-Ang):
   XX=            -12.1499   YY=            -12.1850   ZZ=            -10.8983
   XY=              1.0345   XZ=              0.0000   YZ=              0.0000
 Traceless Quadrupole moment (field-independent basis, Debye-Ang):
   XX=             -0.4055   YY=             -0.4406   ZZ=              0.8461
   XY=              1.0345   XZ=              0.0000   YZ=              0.0000
 Octapole moment (field-independent basis, Debye-Ang**2):
  XXX=              5.1336  YYY=             -3.7927  ZZZ=              0.0000  XYY=              2.3138
  XXY=             -2.6635  XXZ=              0.0000  XZZ=              1.0665  YZZ=             -0.9221
  YYZ=              0.0000  XYZ=              0.0000
 Hexadecapole moment (field-independent basis, Debye-Ang**3):
 XXXX=            -24.5132 YYYY=            -43.2836 ZZZZ=             -6.8618 XXXY=              8.9808
 XXXZ=              0.0000 YYYX=              8.4840 YYYZ=              0.0000 ZZZX=              0.0000
 ZZZY=              0.0000 XXYY=            -12.8044 XXZZ=             -4.7921 YYZZ=             -8.3165
 XXYZ=              0.0000 YYXZ=              0.0000 ZZXY=              2.2367
 N-N= 3.089370960319D+01 E-N=-4.156665430949D+02  KE= 1.489626470650D+02
 Symmetry A'   KE= 1.414187239567D+02
 Symmetry A"   KE= 7.543923108318D+00
 Symmetry A'   SP= 2.000000000000D+00
 Symmetry A"   SP= 1.000000000000D+00
                          Isotropic Fermi Contact Couplings
        Atom                 a.u.       MegaHertz       Gauss      10(-4) cm-1
     1  H(1)               0.23723     353.46712     126.12586     117.90394
     2  O(17)              0.16227     -32.78817     -11.69963     -10.93696
     3  O(17)              0.58296    -117.79677     -42.03282     -39.29277
 --------------------------------------------------------
       Center         ----  Spin Dipole Couplings  ----
                      3XX-RR        3YY-RR        3ZZ-RR
 --------------------------------------------------------
     1   Atom        0.035456     -0.002008     -0.033447
     2   Atom        1.344836     -2.110003      0.765167
     3   Atom        1.039203     -2.131961      1.092758
 --------------------------------------------------------
                        XY            XZ            YZ
 --------------------------------------------------------
     1   Atom       -0.046557      0.000000      0.000000
     2   Atom        0.158103      0.000000      0.000000
     3   Atom        0.111991      0.000000      0.000000
 --------------------------------------------------------


 ---------------------------------------------------------------------------------
              Anisotropic Spin Dipole Couplings in Principal Axis System
 ---------------------------------------------------------------------------------

       Atom             a.u.   MegaHertz   Gauss  10(-4) cm-1        Axes

              Baa    -0.0335   -17.853    -6.370    -5.955  0.5598  0.8286  0.0000
     1 H(1)   Bbb    -0.0334   -17.846    -6.368    -5.953  0.0000  0.0000  1.0000
              Bcc     0.0669    35.699    12.738    11.908  0.8286 -0.5598  0.0000
 
              Baa    -2.1172   153.201    54.666    51.102 -0.0456  0.9990  0.0000
     2 O(17)  Bbb     0.7652   -55.367   -19.756   -18.468  0.0000  0.0000  1.0000
              Bcc     1.3521   -97.834   -34.910   -32.634  0.9990  0.0456  0.0000
 
              Baa    -2.1359   154.553    55.148    51.553 -0.0352  0.9994  0.0000
     3 O(17)  Bbb     1.0432   -75.482   -26.934   -25.178  0.9994  0.0352  0.0000
              Bcc     1.0928   -79.071   -28.215   -26.375  0.0000  0.0000  1.0000
 

 ---------------------------------------------------------------------------------

 PrsmSu:  requested number of processors reduced to:  31 ShMem   1 Linda.
 Calling FoFJK, ICntrl=      2127 FMM=F ISym2X=1 I1Cent= 0 IOpClX= 1 NMat=1 NMatS=1 NMatT=0.
 ***** Axes restored to original set *****
 -------------------------------------------------------------------
 Center     Atomic                   Forces (Hartrees/Bohr)
 Number     Number              X              Y              Z
 -------------------------------------------------------------------
      1        1           0.041017723   -0.031932457   -0.043629473
      2        8          -0.011175365    0.020967428   -0.004361554
      3        8          -0.029842357    0.010965030    0.047991028
 -------------------------------------------------------------------
 Cartesian Forces:  Max     0.047991028 RMS     0.030737506

 GradGradGradGradGradGradGradGradGradGradGradGradGradGradGradGradGradGrad
 Berny optimization.
 Search for a local minimum.
 Step number   1 out of a maximum of    2
 All quantities printed in internal units (Hartrees-Bohrs-Radians)
 Second derivative matrix not updated -- first step.
 The second derivative matrix:
                          X1        Y1        Z1        X2        Y2
           X1           1.00000
           Y1           0.00000   1.00000
           Z1           0.00000   0.00000   1.00000
           X2           0.00000   0.00000   0.00000   0.95267
           Y2           0.00000   0.00000   0.00000   0.10365   0.77303
           Z2           0.00000   0.00000   0.00000  -0.03813   0.08350
           X3           0.00000   0.00000   0.00000  -0.10784   0.23616
           Y3           0.00000   0.00000   0.00000   0.23616  -0.51714
           Z3           0.00000   0.00000   0.00000  -0.08688   0.19026
                          Z2        X3        Y3        Z3
           Z2           0.96928
           X3          -0.08688   0.95267
           Y3           0.19026   0.10365   0.77303
           Z3          -0.07000  -0.03813   0.08350   0.96928
 ITU=  0
     Eigenvalues ---    0.95159   1.00000   1.38996
 Angle between quadratic step and forces=  22.83 degrees.
 ClnCor:  largest displacement from symmetrization is 9.11D-17 for atom     1.
 Linear search not attempted -- first point.
 ClnCor:  largest displacement from symmetrization is 3.55D-15 for atom     1.
 B after Tr=    -0.016668   -0.066208    0.122612
         Rot=    0.999998    0.001593    0.001007    0.000761 Ang=   0.23 deg.
 Variable       Old X    -DE/DX   Delta X   Delta X   Delta X     New X
                                 (Linear)    (Quad)   (Total)
    X1       24.45287   0.04102   0.00000   0.04638   0.03614  24.48900
    Y1       47.66154  -0.03193   0.00000  -0.03054  -0.02951  47.63202
    Z1       32.90429  -0.04363   0.00000  -0.05671  -0.03661  32.86768
    X2       21.81821  -0.01118   0.00000  -0.00337  -0.01081  21.80740
    Y2       50.98765   0.02097   0.00000   0.00939   0.01818  51.00583
    Z2       34.01790  -0.00436   0.00000  -0.00539  -0.00144  34.01647
    X3       22.77989  -0.02984   0.00000  -0.01303  -0.02532  22.75457
    Y3       48.88173   0.01097   0.00000   0.00140   0.01133  48.89306
    Z3       34.79269   0.04799   0.00000   0.02544   0.03804  34.83074
         Item               Value     Threshold  Converged?
 Maximum Force            0.047991     0.000450     NO 
 RMS     Force            0.030738     0.000300     NO 
 Maximum Displacement     0.038043     0.001800     NO 
 RMS     Displacement     0.026212     0.001200     NO 
 Predicted change in Energy=-4.325396D-03
 GradGradGradGradGradGradGradGradGradGradGradGradGradGradGradGradGradGrad

 1\1\GINC-H08R06\Force\UB3LYP\3-21G*\H1O2(4)\ACKGYDJ0BD\09-Jul-2026\0\\
 #force b3lyp/3-21G* Geom=PrintInputOrient\\Generated by MDDatasetMaker
  (Author: Jinzhe Zeng)\\0,4\H,12.9399,25.2214,17.4122\O,11.5457,26.981
 5,18.0015\O,12.0546,25.8671,18.4115\\Version=EM64L-G16RevB.01\State=4-
 A"\HF=-149.9386739\S2=3.754854\S2-1=0.\S2A=3.750009\RMSD=7.727e-09\RMS
 F=3.074e-02\Dipole=-0.2421748,0.2534436,0.1716203\Quadrupole=-0.024715
 4,-0.2268391,0.2515544,0.7195539,0.4164781,-0.3736733\PG=CS [SG(H1O2)]
 \\@


 THERE'S SMALL CHOICE IN A BOWL OF ROTTEN APPLES.
                     SHAKESPEARE
 Job cpu time:       0 days  0 hours  2 minutes 39.1 seconds.
 Elapsed time:       0 days  0 hours  0 minutes  3.2 seconds.
 File lengths (MBytes):  RWF=      6 Int=      0 D2E=      0 Chk=      1 Scr=      1
 Normal termination of Gaussian 16 at Thu Jul  9 10:29:38 2026.
