 Entering Gaussian System, Link 0=g16
 Input=loop1_C1111_03.gjf
 Output=loop1_C1111_03.log
 Initial command:
 /work/home/ackgydj0bd/apprepo/gaussian/16b.01-none_v1.3/app/g16/l1.exe "/work/home/ackgydj0bd/apprepo/gaussian/16b.01-none_v1.3/app/g16/scratch/Gau-246373.inp" -scrdir="/work/home/ackgydj0bd/apprepo/gaussian/16b.01-none_v1.3/app/g16/scratch/"
 Entering Link 1 = /work/home/ackgydj0bd/apprepo/gaussian/16b.01-none_v1.3/app/g16/l1.exe PID=    246374.
  
 Copyright (c) 1988-2017, Gaussian, Inc.  All Rights Reserved.
  
 This is part of the Gaussian(R) 16 program.  It is based on
 the Gaussian(R) 09 system (copyright 2009, Gaussian, Inc.),
 the Gaussian(R) 03 system (copyright 2003, Gaussian, Inc.),
 the Gaussian(R) 98 system (copyright 1998, Gaussian, Inc.),
 the Gaussian(R) 94 system (copyright 1995, Gaussian, Inc.),
 the Gaussian 92(TM) system (copyright 1992, Gaussian, Inc.),
 the Gaussian 90(TM) system (copyright 1990, Gaussian, Inc.),
 the Gaussian 88(TM) system (copyright 1988, Gaussian, Inc.),
 the Gaussian 86(TM) system (copyright 1986, Carnegie Mellon
 University), and the Gaussian 82(TM) system (copyright 1983,
 Carnegie Mellon University). Gaussian is a federally registered
 trademark of Gaussian, Inc.
  
 This software contains proprietary and confidential information,
 including trade secrets, belonging to Gaussian, Inc.
  
 This software is provided under written license and may be
 used, copied, transmitted, or stored only in accord with that
 written license.
  
 The following legend is applicable only to US Government
 contracts under FAR:
  
                    RESTRICTED RIGHTS LEGEND
  
 Use, reproduction and disclosure by the US Government is
 subject to restrictions as set forth in subparagraphs (a)
 and (c) of the Commercial Computer Software - Restricted
 Rights clause in FAR 52.227-19.
  
 Gaussian, Inc.
 340 Quinnipiac St., Bldg. 40, Wallingford CT 06492
  
  
 ---------------------------------------------------------------
 Warning -- This program may not be used in any manner that
 competes with the business of Gaussian, Inc. or will provide
 assistance to any competitor of Gaussian, Inc.  The licensee
 of this program is prohibited from giving any competitor of
 Gaussian, Inc. access to this program.  By using this program,
 the user acknowledges that Gaussian, Inc. is engaged in the
 business of creating and licensing software in the field of
 computational chemistry and represents and warrants to the
 licensee that it is not a competitor of Gaussian, Inc. and that
 it will not use this program in any manner prohibited above.
 ---------------------------------------------------------------
  

 Cite this work as:
 Gaussian 16, Revision B.01,
 M. J. Frisch, G. W. Trucks, H. B. Schlegel, G. E. Scuseria, 
 M. A. Robb, J. R. Cheeseman, G. Scalmani, V. Barone, 
 G. A. Petersson, H. Nakatsuji, X. Li, M. Caricato, A. V. Marenich, 
 J. Bloino, B. G. Janesko, R. Gomperts, B. Mennucci, H. P. Hratchian, 
 J. V. Ortiz, A. F. Izmaylov, J. L. Sonnenberg, D. Williams-Young, 
 F. Ding, F. Lipparini, F. Egidi, J. Goings, B. Peng, A. Petrone, 
 T. Henderson, D. Ranasinghe, V. G. Zakrzewski, J. Gao, N. Rega, 
 G. Zheng, W. Liang, M. Hada, M. Ehara, K. Toyota, R. Fukuda, 
 J. Hasegawa, M. Ishida, T. Nakajima, Y. Honda, O. Kitao, H. Nakai, 
 T. Vreven, K. Throssell, J. A. Montgomery, Jr., J. E. Peralta, 
 F. Ogliaro, M. J. Bearpark, J. J. Heyd, E. N. Brothers, K. N. Kudin, 
 V. N. Staroverov, T. A. Keith, R. Kobayashi, J. Normand, 
 K. Raghavachari, A. P. Rendell, J. C. Burant, S. S. Iyengar, 
 J. Tomasi, M. Cossi, J. M. Millam, M. Klene, C. Adamo, R. Cammi, 
 J. W. Ochterski, R. L. Martin, K. Morokuma, O. Farkas, 
 J. B. Foresman, and D. J. Fox, Gaussian, Inc., Wallingford CT, 2016.
 
 ******************************************
 Gaussian 16:  EM64L-G16RevB.01 20-Dec-2017
                 9-Jul-2026 
 ******************************************
 %nproc=64
 Will use up to   64 processors via shared memory.
 -----------------------------------------
 #force b3lyp/3-21G* Geom=PrintInputOrient
 -----------------------------------------
 1/10=7,30=1,38=1/1,3;
 2/9=2000,12=2,17=6,18=5,40=1/2;
 3/5=5,7=1,11=2,25=1,30=1,71=1,74=-5/1,2,3;
 4//1;
 5/5=2,38=5/2;
 6/7=2,8=2,9=2,10=2,28=1/1;
 7/29=1/1,2,3,16;
 1/10=7,30=1/3;
 99//99;
 -------------------------------------------------
 Generated by MDDatasetMaker (Author: Jinzhe Zeng)
 -------------------------------------------------
 Symbolic Z-matrix:
 Charge =  0 Multiplicity = 1
 C                     24.229    26.608    2.055 
 H                     24.057    26.401    3.091 
 H                     24.73     27.549    1.959 
 H                     24.837    25.835    1.633 
 H                     23.293    26.647    1.539 
 

 GradGradGradGradGradGradGradGradGradGradGradGradGradGradGradGradGradGrad
 Berny optimization.
 Initialization pass.
 Trust Radius=3.00D-01 FncErr=1.00D-07 GrdErr=1.00D-07 EigMax=2.50D+02 EigMin=1.00D-04
 Number of steps in this run=      2 maximum allowed number of steps=      2.
 GradGradGradGradGradGradGradGradGradGradGradGradGradGradGradGradGradGrad

                          Input orientation:                          
 ---------------------------------------------------------------------
 Center     Atomic      Atomic             Coordinates (Angstroms)
 Number     Number       Type             X           Y           Z
 ---------------------------------------------------------------------
      1          6           0       24.229000   26.608000    2.055000
      2          1           0       24.057000   26.401000    3.091000
      3          1           0       24.730000   27.549000    1.959000
      4          1           0       24.837000   25.835000    1.633000
      5          1           0       23.293000   26.647000    1.539000
 ---------------------------------------------------------------------
                    Distance matrix (angstroms):
                    1          2          3          4          5
     1  C    0.000000
     2  H    1.070387   0.000000
     3  H    1.070373   1.747071   0.000000
     4  H    1.070176   1.747719   1.748005   0.000000
     5  H    1.069520   1.747260   1.747848   1.747031   0.000000
 Stoichiometry    CH4
 Framework group  C1[X(CH4)]
 Deg. of freedom     9
 Full point group                 C1      NOp   1
 Largest Abelian subgroup         C1      NOp   1
 Largest concise Abelian subgroup C1      NOp   1
                         Standard orientation:                         
 ---------------------------------------------------------------------
 Center     Atomic      Atomic             Coordinates (Angstroms)
 Number     Number       Type             X           Y           Z
 ---------------------------------------------------------------------
      1          6           0       -0.000142    0.000004    0.000172
      2          1           0        0.423250   -0.650033   -0.737337
      3          1           0        0.777698    0.581987    0.449571
      4          1           0       -0.710696    0.651581   -0.464411
      5          1           0       -0.489398   -0.583559    0.751143
 ---------------------------------------------------------------------
 Rotational constants (GHZ):         164.3024492         164.1840353         164.1476291
 Standard basis: 3-21G* (6D, 7F)
 There are    17 symmetry adapted cartesian basis functions of A   symmetry.
 There are    17 symmetry adapted basis functions of A   symmetry.
    17 basis functions,    27 primitive gaussians,    17 cartesian basis functions
     5 alpha electrons        5 beta electrons
       nuclear repulsion energy        13.6850606531 Hartrees.
 NAtoms=    5 NActive=    5 NUniq=    5 SFac= 1.00D+00 NAtFMM=   60 NAOKFM=F Big=F
 Integral buffers will be    131072 words long.
 Raffenetti 2 integral format.
 Two-electron integral symmetry is turned on.
 One-electron integrals computed using PRISM.
 PrsmSu:  requested number of processors reduced to:  31 ShMem   1 Linda.
 NBasis=    17 RedAO= T EigKep=  3.16D-02  NBF=    17
 NBsUse=    17 1.00D-06 EigRej= -1.00D+00 NBFU=    17
 ExpMin= 1.83D-01 ExpMax= 1.72D+02 ExpMxC= 1.72D+02 IAcc=3 IRadAn=         5 AccDes= 0.00D+00
 Harris functional with IExCor=  402 and IRadAn=       5 diagonalized for initial guess.
 HarFok:  IExCor=  402 AccDes= 0.00D+00 IRadAn=         5 IDoV= 1 UseB2=F ITyADJ=14
 ICtDFT=  3500011 ScaDFX=  1.000000  1.000000  1.000000  1.000000
 FoFCou: FMM=F IPFlag=           0 FMFlag=      100000 FMFlg1=           0
         NFxFlg=           0 DoJE=T BraDBF=F KetDBF=T FulRan=T
         wScrn=  0.000000 ICntrl=       500 IOpCl=  0 I1Cent=   200000004 NGrid=           0
         NMat0=    1 NMatS0=      1 NMatT0=    0 NMatD0=    1 NMtDS0=    0 NMtDT0=    0
 Petite list used in FoFCou.
 Keep R1 ints in memory in canonical form, NReq=55236554.
 Requested convergence on RMS density matrix=1.00D-08 within 128 cycles.
 Requested convergence on MAX density matrix=1.00D-06.
 Requested convergence on             energy=1.00D-06.
 No special actions if energy rises.
 Integral accuracy reduced to 1.0D-05 until final iterations.
 Initial convergence to 1.0D-05 achieved.  Increase integral accuracy.
 SCF Done:  E(RB3LYP) =  -40.3001748664     A.U. after    8 cycles
            NFock=  8  Conv=0.83D-08     -V/T= 2.0075

 **********************************************************************

            Population analysis using the SCF Density.

 **********************************************************************

 Orbital symmetries:
       Occupied  (A) (A) (A) (A) (A)
       Virtual   (A) (A) (A) (A) (A) (A) (A) (A) (A) (A) (A) (A)
 The electronic state is 1-A.
 Alpha  occ. eigenvalues --  -10.09019  -0.69703  -0.39307  -0.39289  -0.39268
 Alpha virt. eigenvalues --    0.15267   0.20179   0.20194   0.20212   0.69596
 Alpha virt. eigenvalues --    0.69620   0.69633   1.05731   1.07452   1.07482
 Alpha virt. eigenvalues --    1.07525   1.70662
          Condensed to atoms (all electrons):
               1          2          3          4          5
     1  C    5.301596   0.370399   0.370457   0.370475   0.370533
     2  H    0.370399   0.514139  -0.026824  -0.026734  -0.026761
     3  H    0.370457  -0.026824   0.513985  -0.026707  -0.026696
     4  H    0.370475  -0.026734  -0.026707   0.513910  -0.026790
     5  H    0.370533  -0.026761  -0.026696  -0.026790   0.513668
 Mulliken charges:
               1
     1  C   -0.783459
     2  H    0.195782
     3  H    0.195785
     4  H    0.195846
     5  H    0.196046
 Sum of Mulliken charges =   0.00000
 Mulliken charges with hydrogens summed into heavy atoms:
               1
     1  C    0.000000
 Electronic spatial extent (au):  <R**2>=             34.6343
 Charge=              0.0000 electrons
 Dipole moment (field-independent basis, Debye):
    X=              0.0001    Y=             -0.0004    Z=             -0.0002  Tot=              0.0005
 Quadrupole moment (field-independent basis, Debye-Ang):
   XX=             -8.1918   YY=             -8.1951   ZZ=             -8.1959
   XY=              0.0004   XZ=             -0.0005   YZ=             -0.0011
 Traceless Quadrupole moment (field-independent basis, Debye-Ang):
   XX=              0.0025   YY=             -0.0009   ZZ=             -0.0016
   XY=              0.0004   XZ=             -0.0005   YZ=             -0.0011
 Octapole moment (field-independent basis, Debye-Ang**2):
  XXX=              0.0500  YYY=             -0.0011  ZZZ=              0.0108  XYY=             -0.0195
  XXY=              0.3076  XXZ=              0.0620  XZZ=             -0.0312  YZZ=             -0.3079
  YYZ=             -0.0724  XYZ=              0.6058
 Hexadecapole moment (field-independent basis, Debye-Ang**3):
 XXXX=            -14.6124 YYYY=            -14.7365 ZZZZ=            -14.6136 XXXY=              0.0642
 XXXZ=              0.2504 YYYX=             -0.0660 YYYZ=              0.0121 ZZZX=             -0.2535
 ZZZY=             -0.0013 XXYY=             -4.5051 XXZZ=             -4.6258 YYZZ=             -4.4981
 XXYZ=             -0.0154 YYXZ=              0.0013 ZZXY=              0.0036
 N-N= 1.368506065313D+01 E-N=-1.200096119739D+02  KE= 3.999855170425D+01
 PrsmSu:  requested number of processors reduced to:  31 ShMem   1 Linda.
 Calling FoFJK, ICntrl=      2127 FMM=F ISym2X=0 I1Cent= 0 IOpClX= 0 NMat=1 NMatS=1 NMatT=0.
 ***** Axes restored to original set *****
 -------------------------------------------------------------------
 Center     Atomic                   Forces (Hartrees/Bohr)
 Number     Number              X              Y              Z
 -------------------------------------------------------------------
      1        6           0.000467487    0.000064731    0.000472667
      2        1          -0.002670012   -0.003250896    0.015854514
      3        1           0.007645439    0.014399414   -0.001608342
      4        1           0.009424085   -0.011908656   -0.006509262
      5        1          -0.014867000    0.000695406   -0.008209576
 -------------------------------------------------------------------
 Cartesian Forces:  Max     0.015854514 RMS     0.008562710

 GradGradGradGradGradGradGradGradGradGradGradGradGradGradGradGradGradGrad
 Berny optimization.
 Search for a local minimum.
 Step number   1 out of a maximum of    2
 All quantities printed in internal units (Hartrees-Bohrs-Radians)
 Second derivative matrix not updated -- first step.
 The second derivative matrix:
                          X1        Y1        Z1        X2        Y2
           X1           0.70873
           Y1          -0.00006   0.70787
           Z1           0.00064   0.00045   0.70775
           X2          -0.08698  -0.00908   0.04548   0.06720
           Y2          -0.00908  -0.09030   0.05474   0.00973   0.07079
           Z2           0.04547   0.05474  -0.35332  -0.04863  -0.05853
           X3          -0.14355  -0.12029   0.01225   0.00026  -0.00038
           Y3          -0.12029  -0.30544   0.02308   0.00162   0.00364
           Z3           0.01223   0.02305  -0.08171   0.01719   0.03372
           X4          -0.17396   0.12006   0.06552   0.00096  -0.00080
           Y4           0.12007  -0.23213  -0.08340  -0.00967   0.01521
           Z4           0.06550  -0.08337  -0.12492   0.01910  -0.02901
           X5          -0.30424   0.00937  -0.12389   0.01858   0.00053
           Y5           0.00937  -0.08000   0.00513   0.00741   0.00066
           Z5          -0.12385   0.00514  -0.14779  -0.03313  -0.00092
                          Z2        X3        Y3        Z3        X4
           Z2           0.35204
           X3          -0.00003   0.12765
           Y3           0.00100   0.12867   0.30081
           Z3           0.00959  -0.01312  -0.02466   0.06161
           X4           0.00000   0.02113  -0.01249  -0.01215   0.16018
           Y4           0.00143   0.02039  -0.01208  -0.01202  -0.12841
           Z4          -0.00263  -0.00691   0.00414   0.00451  -0.07008
           X5           0.00319  -0.00549   0.00250  -0.00415  -0.00831
           Y5           0.00136  -0.02840   0.01307  -0.02008   0.02165
           Z5          -0.00568   0.00781  -0.00354   0.00601   0.01672
                          Y4        Z4        X5        Y5        Z5
           Y4           0.22240
           Z4           0.08917   0.10777
           X5          -0.00238  -0.00762   0.29947
           Y5           0.00661   0.01908  -0.01002   0.05965
           Z5           0.00482   0.01526   0.13246  -0.00549   0.13221
 ITU=  0
     Eigenvalues ---    0.11735   0.11741   0.14140   0.14149   0.14154
     Eigenvalues ---    0.37216   0.86838   0.86936   0.87071
 Angle between quadratic step and forces=   1.17 degrees.
 Linear search not attempted -- first point.
 B after Tr=     0.000057   -0.000002    0.000127
         Rot=    1.000000    0.000000    0.000000    0.000000 Ang=   0.00 deg.
 Variable       Old X    -DE/DX   Delta X   Delta X   Delta X     New X
                                 (Linear)    (Quad)   (Total)
    X1       45.78617   0.00047   0.00000   0.00020   0.00025  45.78643
    Y1       50.28183   0.00006   0.00000  -0.00001  -0.00001  50.28182
    Z1        3.88339   0.00047   0.00000   0.00044   0.00056   3.88395
    X2       45.46114  -0.00267   0.00000  -0.00724  -0.00718  45.45396
    Y2       49.89066  -0.00325   0.00000  -0.00923  -0.00923  49.88143
    Z2        5.84114   0.01585   0.00000   0.04294   0.04307   5.88421
    X3       46.73293   0.00765   0.00000   0.02059   0.02065  46.75358
    Y3       52.06007   0.01440   0.00000   0.03870   0.03870  52.09876
    Z3        3.70197  -0.00161   0.00000  -0.00495  -0.00482   3.69715
    X4       46.93513   0.00942   0.00000   0.02569   0.02574  46.96087
    Y4       48.82107  -0.01191   0.00000  -0.03178  -0.03178  48.78929
    Z4        3.08592  -0.00651   0.00000  -0.01725  -0.01712   3.06880
    X5       44.01739  -0.01487   0.00000  -0.03952  -0.03946  43.97793
    Y5       50.35553   0.00070   0.00000   0.00232   0.00232  50.35785
    Z5        2.90829  -0.00821   0.00000  -0.02182  -0.02169   2.88660
         Item               Value     Threshold  Converged?
 Maximum Force            0.015855     0.000450     NO 
 RMS     Force            0.008563     0.000300     NO 
 Maximum Displacement     0.043066     0.001800     NO 
 RMS     Displacement     0.023005     0.001200     NO 
 Predicted change in Energy=-1.477075D-03
 GradGradGradGradGradGradGradGradGradGradGradGradGradGradGradGradGradGrad

 1\1\GINC-H08R06\Force\RB3LYP\3-21G*\C1H4\ACKGYDJ0BD\09-Jul-2026\0\\#fo
 rce b3lyp/3-21G* Geom=PrintInputOrient\\Generated by MDDatasetMaker (A
 uthor: Jinzhe Zeng)\\0,1\C,24.229,26.608,2.055\H,24.057,26.401,3.091\H
 ,24.73,27.549,1.959\H,24.837,25.835,1.633\H,23.293,26.647,1.539\\Versi
 on=EM64L-G16RevB.01\State=1-A\HF=-40.3001749\RMSD=8.275e-09\RMSF=8.563
 e-03\Dipole=-0.0000935,-0.0000483,0.0001537\Quadrupole=0.0001993,0.000
 1628,-0.0003621,0.0004212,0.0007941,0.0016165\PG=C01 [X(C1H4)]\\@


 WE ARE REACHING THE STAGE WHERE THE PROBLEMS WE MUST SOLVE ARE 
 GOING TO BECOME INSOLUBLE WITHOUT COMPUTERS.
 I DO NOT FEAR COMPUTERS.  I FEAR THE LACK OF THEM.

                                   -- ISSAC ASIMOV
 Job cpu time:       0 days  0 hours  2 minutes 28.1 seconds.
 Elapsed time:       0 days  0 hours  0 minutes  3.1 seconds.
 File lengths (MBytes):  RWF=      6 Int=      0 D2E=      0 Chk=      1 Scr=      1
 Normal termination of Gaussian 16 at Thu Jul  9 10:26:53 2026.
