 Entering Gaussian System, Link 0=g16
 Input=loop1_C_01.gjf
 Output=loop1_C_01.log
 Initial command:
 /work/home/ackgydj0bd/apprepo/gaussian/16b.01-none_v1.3/app/g16/l1.exe "/work/home/ackgydj0bd/apprepo/gaussian/16b.01-none_v1.3/app/g16/scratch/Gau-222869.inp" -scrdir="/work/home/ackgydj0bd/apprepo/gaussian/16b.01-none_v1.3/app/g16/scratch/"
 Entering Link 1 = /work/home/ackgydj0bd/apprepo/gaussian/16b.01-none_v1.3/app/g16/l1.exe PID=    222870.
  
 Copyright (c) 1988-2017, Gaussian, Inc.  All Rights Reserved.
  
 This is part of the Gaussian(R) 16 program.  It is based on
 the Gaussian(R) 09 system (copyright 2009, Gaussian, Inc.),
 the Gaussian(R) 03 system (copyright 2003, Gaussian, Inc.),
 the Gaussian(R) 98 system (copyright 1998, Gaussian, Inc.),
 the Gaussian(R) 94 system (copyright 1995, Gaussian, Inc.),
 the Gaussian 92(TM) system (copyright 1992, Gaussian, Inc.),
 the Gaussian 90(TM) system (copyright 1990, Gaussian, Inc.),
 the Gaussian 88(TM) system (copyright 1988, Gaussian, Inc.),
 the Gaussian 86(TM) system (copyright 1986, Carnegie Mellon
 University), and the Gaussian 82(TM) system (copyright 1983,
 Carnegie Mellon University). Gaussian is a federally registered
 trademark of Gaussian, Inc.
  
 This software contains proprietary and confidential information,
 including trade secrets, belonging to Gaussian, Inc.
  
 This software is provided under written license and may be
 used, copied, transmitted, or stored only in accord with that
 written license.
  
 The following legend is applicable only to US Government
 contracts under FAR:
  
                    RESTRICTED RIGHTS LEGEND
  
 Use, reproduction and disclosure by the US Government is
 subject to restrictions as set forth in subparagraphs (a)
 and (c) of the Commercial Computer Software - Restricted
 Rights clause in FAR 52.227-19.
  
 Gaussian, Inc.
 340 Quinnipiac St., Bldg. 40, Wallingford CT 06492
  
  
 ---------------------------------------------------------------
 Warning -- This program may not be used in any manner that
 competes with the business of Gaussian, Inc. or will provide
 assistance to any competitor of Gaussian, Inc.  The licensee
 of this program is prohibited from giving any competitor of
 Gaussian, Inc. access to this program.  By using this program,
 the user acknowledges that Gaussian, Inc. is engaged in the
 business of creating and licensing software in the field of
 computational chemistry and represents and warrants to the
 licensee that it is not a competitor of Gaussian, Inc. and that
 it will not use this program in any manner prohibited above.
 ---------------------------------------------------------------
  

 Cite this work as:
 Gaussian 16, Revision B.01,
 M. J. Frisch, G. W. Trucks, H. B. Schlegel, G. E. Scuseria, 
 M. A. Robb, J. R. Cheeseman, G. Scalmani, V. Barone, 
 G. A. Petersson, H. Nakatsuji, X. Li, M. Caricato, A. V. Marenich, 
 J. Bloino, B. G. Janesko, R. Gomperts, B. Mennucci, H. P. Hratchian, 
 J. V. Ortiz, A. F. Izmaylov, J. L. Sonnenberg, D. Williams-Young, 
 F. Ding, F. Lipparini, F. Egidi, J. Goings, B. Peng, A. Petrone, 
 T. Henderson, D. Ranasinghe, V. G. Zakrzewski, J. Gao, N. Rega, 
 G. Zheng, W. Liang, M. Hada, M. Ehara, K. Toyota, R. Fukuda, 
 J. Hasegawa, M. Ishida, T. Nakajima, Y. Honda, O. Kitao, H. Nakai, 
 T. Vreven, K. Throssell, J. A. Montgomery, Jr., J. E. Peralta, 
 F. Ogliaro, M. J. Bearpark, J. J. Heyd, E. N. Brothers, K. N. Kudin, 
 V. N. Staroverov, T. A. Keith, R. Kobayashi, J. Normand, 
 K. Raghavachari, A. P. Rendell, J. C. Burant, S. S. Iyengar, 
 J. Tomasi, M. Cossi, J. M. Millam, M. Klene, C. Adamo, R. Cammi, 
 J. W. Ochterski, R. L. Martin, K. Morokuma, O. Farkas, 
 J. B. Foresman, and D. J. Fox, Gaussian, Inc., Wallingford CT, 2016.
 
 ******************************************
 Gaussian 16:  EM64L-G16RevB.01 20-Dec-2017
                 9-Jul-2026 
 ******************************************
 %nproc=64
 Will use up to   64 processors via shared memory.
 -----------------------------------------
 #force b3lyp/3-21G* Geom=PrintInputOrient
 -----------------------------------------
 1/10=7,30=1,38=1/1,3;
 2/9=2000,12=2,17=6,18=5,40=1/2;
 3/5=5,7=1,11=2,25=1,30=1,71=1,74=-5/1,2,3;
 4//1;
 5/5=2,38=5/2;
 6/7=2,8=2,9=2,10=2,28=1/1;
 7/29=1/1,2,3,16;
 1/10=7,30=1/3;
 99//99;
 -------------------------------------------------
 Generated by MDDatasetMaker (Author: Jinzhe Zeng)
 -------------------------------------------------
 Symbolic Z-matrix:
 Charge =  0 Multiplicity = 1
 H                     5.50144   8.09857   19.0207 
 C                     5.26181   8.62825   19.508 
 H                     5.85653   7.95441   20.3434 
 H                     3.88468   8.46786   19.7492 
 H                     4.82498   7.82836   19.5337 
 C                     5.42521   7.4553    18.0191 
 

 GradGradGradGradGradGradGradGradGradGradGradGradGradGradGradGradGradGrad
 Berny optimization.
 Initialization pass.
 Trust Radius=3.00D-01 FncErr=1.00D-07 GrdErr=1.00D-07 EigMax=2.50D+02 EigMin=1.00D-04
 Number of steps in this run=      2 maximum allowed number of steps=      2.
 GradGradGradGradGradGradGradGradGradGradGradGradGradGradGradGradGradGrad

                          Input orientation:                          
 ---------------------------------------------------------------------
 Center     Atomic      Atomic             Coordinates (Angstroms)
 Number     Number       Type             X           Y           Z
 ---------------------------------------------------------------------
      1          1           0        5.501440    8.098570   19.020700
      2          6           0        5.261810    8.628250   19.508000
      3          1           0        5.856530    7.954410   20.343400
      4          1           0        3.884680    8.467860   19.749200
      5          1           0        4.824980    7.828360   19.533700
      6          6           0        5.425210    7.455300   18.019100
 ---------------------------------------------------------------------
                    Distance matrix (angstroms):
                    1          2          3          4          5
     1  H    0.000000
     2  C    0.758581   0.000000
     3  H    1.377101   1.227047   0.000000
     4  H    1.811353   1.407263   2.122474   0.000000
     5  H    0.890944   0.911759   1.317421   1.157396   0.000000
     6  C    1.192816   1.902455   2.416096   2.528192   1.671366
                    6
     6  C    0.000000
 Stoichiometry    C2H4
 Framework group  C1[X(C2H4)]
 Deg. of freedom    12
 Full point group                 C1      NOp   1
 Largest Abelian subgroup         C1      NOp   1
 Largest concise Abelian subgroup C1      NOp   1
                         Standard orientation:                         
 ---------------------------------------------------------------------
 Center     Atomic      Atomic             Coordinates (Angstroms)
 Number     Number       Type             X           Y           Z
 ---------------------------------------------------------------------
      1          1           0        0.011665   -0.237796   -0.061974
      2          6           0        0.733025   -0.082974   -0.238365
      3          1           0        0.994995   -0.886895    0.650864
      4          1           0        1.078887    1.194003    0.241321
      5          1           0        0.416074    0.290393    0.530689
      6          6           0       -1.149962    0.023023    0.011549
 ---------------------------------------------------------------------
 Rotational constants (GHZ):         134.1500026          19.5552794          18.7388493
 Standard basis: 3-21G* (6D, 7F)
 There are    26 symmetry adapted cartesian basis functions of A   symmetry.
 There are    26 symmetry adapted basis functions of A   symmetry.
    26 basis functions,    42 primitive gaussians,    26 cartesian basis functions
     8 alpha electrons        8 beta electrons
       nuclear repulsion energy        32.0352910248 Hartrees.
 NAtoms=    6 NActive=    6 NUniq=    6 SFac= 1.00D+00 NAtFMM=   60 NAOKFM=F Big=F
 Integral buffers will be    131072 words long.
 Raffenetti 2 integral format.
 Two-electron integral symmetry is turned on.
 One-electron integrals computed using PRISM.
 PrsmSu:  requested number of processors reduced to:  31 ShMem   1 Linda.
 NBasis=    26 RedAO= T EigKep=  3.49D-03  NBF=    26
 NBsUse=    26 1.00D-06 EigRej= -1.00D+00 NBFU=    26
 ExpMin= 1.83D-01 ExpMax= 1.72D+02 ExpMxC= 1.72D+02 IAcc=3 IRadAn=         5 AccDes= 0.00D+00
 Harris functional with IExCor=  402 and IRadAn=       5 diagonalized for initial guess.
 HarFok:  IExCor=  402 AccDes= 0.00D+00 IRadAn=         5 IDoV= 1 UseB2=F ITyADJ=14
 ICtDFT=  3500011 ScaDFX=  1.000000  1.000000  1.000000  1.000000
 FoFCou: FMM=F IPFlag=           0 FMFlag=      100000 FMFlg1=           0
         NFxFlg=           0 DoJE=T BraDBF=F KetDBF=T FulRan=T
         wScrn=  0.000000 ICntrl=       500 IOpCl=  0 I1Cent=   200000004 NGrid=           0
         NMat0=    1 NMatS0=      1 NMatT0=    0 NMatD0=    1 NMtDS0=    0 NMtDT0=    0
 Petite list used in FoFCou.
 Keep R1 ints in memory in canonical form, NReq=55322722.
 Requested convergence on RMS density matrix=1.00D-08 within 128 cycles.
 Requested convergence on MAX density matrix=1.00D-06.
 Requested convergence on             energy=1.00D-06.
 No special actions if energy rises.
 Integral accuracy reduced to 1.0D-05 until final iterations.
 Initial convergence to 1.0D-05 achieved.  Increase integral accuracy.
 SCF Done:  E(RB3LYP) =  -77.3972641680     A.U. after   20 cycles
            NFock= 20  Conv=0.28D-08     -V/T= 1.9897

 **********************************************************************

            Population analysis using the SCF Density.

 **********************************************************************

 Orbital symmetries:
       Occupied  (A) (A) (A) (A) (A) (A) (A) (A)
       Virtual   (A) (A) (A) (A) (A) (A) (A) (A) (A) (A) (A) (A)
                 (A) (A) (A) (A) (A) (A)
 The electronic state is 1-A.
 Alpha  occ. eigenvalues --  -10.20173 -10.19901  -1.03213  -0.59157  -0.46998
 Alpha  occ. eigenvalues --   -0.39497  -0.34919  -0.17851
 Alpha virt. eigenvalues --   -0.10699  -0.05655   0.00049   0.08195   0.15832
 Alpha virt. eigenvalues --    0.42062   0.58247   0.62995   0.72348   0.75109
 Alpha virt. eigenvalues --    0.79618   0.81752   0.89027   0.92484   1.10250
 Alpha virt. eigenvalues --    1.34232   1.54516   1.88680
          Condensed to atoms (all electrons):
               1          2          3          4          5          6
     1  H    1.837547  -0.574603  -0.072677   0.015903  -0.315356  -0.132144
     2  C   -0.574603   6.444417   0.359801   0.236672   0.052786   0.012837
     3  H   -0.072677   0.359801   0.610311  -0.029890  -0.023803  -0.010194
     4  H    0.015903   0.236672  -0.029890   0.737325  -0.083869  -0.035802
     5  H   -0.315356   0.052786  -0.023803  -0.083869   1.111023   0.074659
     6  C   -0.132144   0.012837  -0.010194  -0.035802   0.074659   6.310733
 Mulliken charges:
               1
     1  H    0.241329
     2  C   -0.531909
     3  H    0.166450
     4  H    0.159660
     5  H    0.184559
     6  C   -0.220089
 Sum of Mulliken charges =   0.00000
 Mulliken charges with hydrogens summed into heavy atoms:
               1
     2  C    0.220089
     6  C   -0.220089
 Electronic spatial extent (au):  <R**2>=             95.3607
 Charge=              0.0000 electrons
 Dipole moment (field-independent basis, Debye):
    X=              1.3562    Y=              0.4594    Z=              1.7615  Tot=              2.2701
 Quadrupole moment (field-independent basis, Debye-Ang):
   XX=            -16.6491   YY=            -15.5608   ZZ=            -14.4359
   XY=              0.8896   XZ=              2.1363   YZ=              0.8052
 Traceless Quadrupole moment (field-independent basis, Debye-Ang):
   XX=             -1.1005   YY=             -0.0122   ZZ=              1.1127
   XY=              0.8896   XZ=              2.1363   YZ=              0.8052
 Octapole moment (field-independent basis, Debye-Ang**2):
  XXX=              1.3101  YYY=              0.8548  ZZZ=              1.7454  XYY=              4.3016
  XXY=              0.3313  XXZ=              1.3350  XZZ=             -0.0570  YZZ=             -0.4753
  YYZ=              1.3896  XYZ=             -0.8789
 Hexadecapole moment (field-independent basis, Debye-Ang**3):
 XXXX=            -92.8796 YYYY=            -28.3143 ZZZZ=            -20.0516 XXXY=              1.1599
 XXXZ=              3.5824 YYYX=              1.2688 YYYZ=              0.9219 ZZZX=              2.1102
 ZZZY=              0.4853 XXYY=            -22.7108 XXZZ=            -18.2267 YYZZ=             -7.9314
 XXYZ=              1.4758 YYXZ=              1.5062 ZZXY=             -0.2846
 N-N= 3.203529102477D+01 E-N=-2.431082753220D+02  KE= 7.820276748096D+01
 PrsmSu:  requested number of processors reduced to:  31 ShMem   1 Linda.
 Calling FoFJK, ICntrl=      2127 FMM=F ISym2X=0 I1Cent= 0 IOpClX= 0 NMat=1 NMatS=1 NMatT=0.
 ***** Axes restored to original set *****
 -------------------------------------------------------------------
 Center     Atomic                   Forces (Hartrees/Bohr)
 Number     Number              X              Y              Z
 -------------------------------------------------------------------
      1        1           0.285527244   -0.373656463   -0.453007192
      2        6          -0.161427275    0.531349881    0.480867170
      3        1          -0.003691780    0.065624126    0.005601534
      4        1           0.050563832    0.051177778    0.000244121
      5        1          -0.174226842   -0.240787037    0.047126157
      6        6           0.003254820   -0.033708284   -0.080831790
 -------------------------------------------------------------------
 Cartesian Forces:  Max     0.531349881 RMS     0.244238899

 GradGradGradGradGradGradGradGradGradGradGradGradGradGradGradGradGradGrad
 Berny optimization.
 Search for a local minimum.
 Step number   1 out of a maximum of    2
 All quantities printed in internal units (Hartrees-Bohrs-Radians)
 Second derivative matrix not updated -- first step.
 The second derivative matrix:
                          X1        Y1        Z1        X2        Y2
           X1           1.23889
           Y1           0.15929   1.53239
           Z1          -0.44783   0.23592   1.35319
           X2          -0.67769   0.22281   0.27065   1.00340
           Y2          -0.05296  -1.18382  -0.21288   0.08647   1.96887
           Z2           0.31409  -0.28869  -0.95152  -0.22542   0.28171
           X3          -0.00161  -0.03527   0.03755  -0.09559   0.03446
           Y3          -0.02559  -0.00223  -0.01016   0.08727  -0.15388
           Z3          -0.01949   0.02331  -0.03492  -0.02381   0.03519
           X4          -0.00169  -0.00981   0.00983  -0.12897  -0.00254
           Y4           0.04386   0.04274  -0.02489  -0.10816  -0.09218
           Z4           0.01954  -0.02756   0.03957  -0.00233   0.01805
           X5          -0.26065  -0.17489   0.11904  -0.19527  -0.15213
           Y5           0.01502  -0.05464  -0.04788  -0.33041  -0.60980
           Z5           0.04141  -0.00731  -0.11282   0.01041   0.00511
           X6          -0.29725  -0.16212   0.01077   0.09413   0.08671
           Y6          -0.13962  -0.33444   0.05989   0.04202   0.07081
           Z6           0.09228   0.06434  -0.29350  -0.02949  -0.12717
                          Z2        X3        Y3        Z3        X4
           Z2           1.23511
           X3          -0.03751   0.11210
           Y3           0.11366  -0.03798   0.12255
           Z3          -0.10953   0.05182  -0.05795   0.14429
           X4           0.00600  -0.00479  -0.00162   0.00210   0.13752
           Y4           0.02635   0.01440   0.00491  -0.00629   0.00892
           Z4          -0.08941  -0.01777  -0.00597   0.00783  -0.01483
           X5          -0.00765  -0.02529  -0.02282  -0.00040  -0.00516
           Y5           0.07638   0.01295   0.01162   0.00015   0.00277
           Z5          -0.12132  -0.02674  -0.02624  -0.00213  -0.00165
           X6          -0.04950   0.01519   0.00073  -0.01022   0.00308
           Y6          -0.20940   0.01144   0.01704   0.00560   0.00228
           Z6           0.03667  -0.00735  -0.01334  -0.00553  -0.00146
                          Y4        Z4        X5        Y5        Z5
           Y4           0.06721
           Z4           0.00177   0.05768
           X5           0.03647  -0.00521   0.45445
           Y5          -0.01990   0.00255   0.28980   0.66822
           Z5           0.00039  -0.00915  -0.08887  -0.02723   0.28501
           X6           0.00451   0.02060   0.03193   0.00987   0.06545
           Y6          -0.00278   0.01116   0.02357   0.00451   0.05528
           Z6           0.00268  -0.00653  -0.01690  -0.00398  -0.03958
                          X6        Y6        Z6
           X6           0.15293
           Y6           0.06031   0.24486
           Z6          -0.03709   0.07748   0.30847
 ITU=  0
     Eigenvalues ---    0.08216   0.10045   0.13217   0.20627   0.24196
     Eigenvalues ---    0.32896   0.38720   0.65514   1.16275   1.38107
     Eigenvalues ---    2.40374   3.03430
 Quadratic step=1.146D+00 exceeds max=3.000D-01 adjusted using Lamda=-1.008D+00.
 Angle between NR and scaled steps=  44.29 degrees.
 Angle between quadratic step and forces=  25.09 degrees.
 Linear search not attempted -- first point.
 B after Tr=     0.112682    0.236953   -0.116730
         Rot=    0.999991   -0.003635    0.000750   -0.002082 Ang=  -0.49 deg.
 Variable       Old X    -DE/DX   Delta X   Delta X   Delta X     New X
                                 (Linear)    (Quad)   (Total)
    X1       10.39621   0.28553   0.00000   0.08188   0.07787  10.47409
    Y1       15.30408  -0.37366   0.00000  -0.09814  -0.07869  15.22539
    Z1       35.94391  -0.45301   0.00000  -0.11627  -0.10763  35.83628
    X2        9.94338  -0.16143   0.00000  -0.03308  -0.04376   9.89962
    Y2       16.30503   0.53135   0.00000   0.09138   0.10004  16.40507
    Z2       36.86478   0.48087   0.00000   0.11633   0.13273  36.99750
    X3       11.06724  -0.00369   0.00000   0.00100  -0.00643  11.06081
    Y3       15.03166   0.06562   0.00000   0.05865   0.06146  15.09312
    Z3       38.44345   0.00560   0.00000   0.01060   0.01922  38.46268
    X4        7.34098   0.05056   0.00000   0.04552   0.03579   7.37677
    Y4       16.00194   0.05118   0.00000   0.04931   0.04499  16.04693
    Z4       37.32058   0.00024   0.00000   0.00385   0.01390  37.33448
    X5        9.11789  -0.17423   0.00000  -0.07491  -0.07834   9.03955
    Y5       14.79346  -0.24079   0.00000  -0.11825  -0.11282  14.68064
    Z5       36.91334   0.04713   0.00000   0.02376   0.02633  36.93968
    X6       10.25216   0.00325   0.00000   0.01125   0.01486  10.26702
    Y6       14.08848  -0.03371   0.00000  -0.04711  -0.01498  14.07350
    Z6       34.05116  -0.08083   0.00000  -0.08446  -0.08456  33.96661
         Item               Value     Threshold  Converged?
 Maximum Force            0.531350     0.000450     NO 
 RMS     Force            0.244239     0.000300     NO 
 Maximum Displacement     0.132728     0.001800     NO 
 RMS     Displacement     0.070008     0.001200     NO 
 Predicted change in Energy=-1.867333D-01
 GradGradGradGradGradGradGradGradGradGradGradGradGradGradGradGradGradGrad

 1\1\GINC-H08R06\Force\RB3LYP\3-21G*\C2H4\ACKGYDJ0BD\09-Jul-2026\0\\#fo
 rce b3lyp/3-21G* Geom=PrintInputOrient\\Generated by MDDatasetMaker (A
 uthor: Jinzhe Zeng)\\0,1\H,5.50144,8.09857,19.0207\C,5.26181,8.62825,1
 9.508\H,5.85653,7.95441,20.3434\H,3.88468,8.46786,19.7492\H,4.82498,7.
 82836,19.5337\C,5.42521,7.4553,18.0191\\Version=EM64L-G16RevB.01\State
 =1-A\HF=-77.3972642\RMSD=2.759e-09\RMSF=2.442e-01\Dipole=-0.3757794,-0
 .3099866,0.7485613\Quadrupole=0.4757119,-1.0222478,0.5465359,0.4313144
 ,-1.0819241,-1.3615099\PG=C01 [X(C2H4)]\\@


 When I told the people of Northern Ireland that I was
 an atheist, a woman in the audience stood up and said,
 "Yes, but is it the God of the Catholics or the God
 of the Protestants in whom you don't believe?"
                               -- Quentin Crisp
 Job cpu time:       0 days  0 hours  3 minutes  3.8 seconds.
 Elapsed time:       0 days  0 hours  0 minutes  3.9 seconds.
 File lengths (MBytes):  RWF=      6 Int=      0 D2E=      0 Chk=      1 Scr=      1
 Normal termination of Gaussian 16 at Thu Jul  9 10:25:24 2026.
