 Entering Gaussian System, Link 0=g16
 Input=loop1_C1_04.gjf
 Output=loop1_C1_04.log
 Initial command:
 /work/home/ackgydj0bd/apprepo/gaussian/16b.01-none_v1.3/app/g16/l1.exe "/work/home/ackgydj0bd/apprepo/gaussian/16b.01-none_v1.3/app/g16/scratch/Gau-232738.inp" -scrdir="/work/home/ackgydj0bd/apprepo/gaussian/16b.01-none_v1.3/app/g16/scratch/"
 Entering Link 1 = /work/home/ackgydj0bd/apprepo/gaussian/16b.01-none_v1.3/app/g16/l1.exe PID=    232739.
  
 Copyright (c) 1988-2017, Gaussian, Inc.  All Rights Reserved.
  
 This is part of the Gaussian(R) 16 program.  It is based on
 the Gaussian(R) 09 system (copyright 2009, Gaussian, Inc.),
 the Gaussian(R) 03 system (copyright 2003, Gaussian, Inc.),
 the Gaussian(R) 98 system (copyright 1998, Gaussian, Inc.),
 the Gaussian(R) 94 system (copyright 1995, Gaussian, Inc.),
 the Gaussian 92(TM) system (copyright 1992, Gaussian, Inc.),
 the Gaussian 90(TM) system (copyright 1990, Gaussian, Inc.),
 the Gaussian 88(TM) system (copyright 1988, Gaussian, Inc.),
 the Gaussian 86(TM) system (copyright 1986, Carnegie Mellon
 University), and the Gaussian 82(TM) system (copyright 1983,
 Carnegie Mellon University). Gaussian is a federally registered
 trademark of Gaussian, Inc.
  
 This software contains proprietary and confidential information,
 including trade secrets, belonging to Gaussian, Inc.
  
 This software is provided under written license and may be
 used, copied, transmitted, or stored only in accord with that
 written license.
  
 The following legend is applicable only to US Government
 contracts under FAR:
  
                    RESTRICTED RIGHTS LEGEND
  
 Use, reproduction and disclosure by the US Government is
 subject to restrictions as set forth in subparagraphs (a)
 and (c) of the Commercial Computer Software - Restricted
 Rights clause in FAR 52.227-19.
  
 Gaussian, Inc.
 340 Quinnipiac St., Bldg. 40, Wallingford CT 06492
  
  
 ---------------------------------------------------------------
 Warning -- This program may not be used in any manner that
 competes with the business of Gaussian, Inc. or will provide
 assistance to any competitor of Gaussian, Inc.  The licensee
 of this program is prohibited from giving any competitor of
 Gaussian, Inc. access to this program.  By using this program,
 the user acknowledges that Gaussian, Inc. is engaged in the
 business of creating and licensing software in the field of
 computational chemistry and represents and warrants to the
 licensee that it is not a competitor of Gaussian, Inc. and that
 it will not use this program in any manner prohibited above.
 ---------------------------------------------------------------
  

 Cite this work as:
 Gaussian 16, Revision B.01,
 M. J. Frisch, G. W. Trucks, H. B. Schlegel, G. E. Scuseria, 
 M. A. Robb, J. R. Cheeseman, G. Scalmani, V. Barone, 
 G. A. Petersson, H. Nakatsuji, X. Li, M. Caricato, A. V. Marenich, 
 J. Bloino, B. G. Janesko, R. Gomperts, B. Mennucci, H. P. Hratchian, 
 J. V. Ortiz, A. F. Izmaylov, J. L. Sonnenberg, D. Williams-Young, 
 F. Ding, F. Lipparini, F. Egidi, J. Goings, B. Peng, A. Petrone, 
 T. Henderson, D. Ranasinghe, V. G. Zakrzewski, J. Gao, N. Rega, 
 G. Zheng, W. Liang, M. Hada, M. Ehara, K. Toyota, R. Fukuda, 
 J. Hasegawa, M. Ishida, T. Nakajima, Y. Honda, O. Kitao, H. Nakai, 
 T. Vreven, K. Throssell, J. A. Montgomery, Jr., J. E. Peralta, 
 F. Ogliaro, M. J. Bearpark, J. J. Heyd, E. N. Brothers, K. N. Kudin, 
 V. N. Staroverov, T. A. Keith, R. Kobayashi, J. Normand, 
 K. Raghavachari, A. P. Rendell, J. C. Burant, S. S. Iyengar, 
 J. Tomasi, M. Cossi, J. M. Millam, M. Klene, C. Adamo, R. Cammi, 
 J. W. Ochterski, R. L. Martin, K. Morokuma, O. Farkas, 
 J. B. Foresman, and D. J. Fox, Gaussian, Inc., Wallingford CT, 2016.
 
 ******************************************
 Gaussian 16:  EM64L-G16RevB.01 20-Dec-2017
                 9-Jul-2026 
 ******************************************
 %nproc=64
 Will use up to   64 processors via shared memory.
 -----------------------------------------
 #force b3lyp/3-21G* Geom=PrintInputOrient
 -----------------------------------------
 1/10=7,30=1,38=1/1,3;
 2/9=2000,12=2,17=6,18=5,40=1/2;
 3/5=5,7=1,11=2,25=1,30=1,71=1,74=-5/1,2,3;
 4//1;
 5/5=2,38=5/2;
 6/7=2,8=2,9=2,10=2,28=1/1;
 7/29=1/1,2,3,16;
 1/10=7,30=1/3;
 99//99;
 -------------------------------------------------
 Generated by MDDatasetMaker (Author: Jinzhe Zeng)
 -------------------------------------------------
 Symbolic Z-matrix:
 Charge =  0 Multiplicity = 2
 H                     11.7371   1.55403   8.93911 
 O                     12.3531   1.3022    7.90543 
 C                     10.7717   0.76968   8.0567 
 O                     10.9017   1.11571   9.97664 
 

 GradGradGradGradGradGradGradGradGradGradGradGradGradGradGradGradGradGrad
 Berny optimization.
 Initialization pass.
 Trust Radius=3.00D-01 FncErr=1.00D-07 GrdErr=1.00D-07 EigMax=2.50D+02 EigMin=1.00D-04
 Number of steps in this run=      2 maximum allowed number of steps=      2.
 GradGradGradGradGradGradGradGradGradGradGradGradGradGradGradGradGradGrad

                          Input orientation:                          
 ---------------------------------------------------------------------
 Center     Atomic      Atomic             Coordinates (Angstroms)
 Number     Number       Type             X           Y           Z
 ---------------------------------------------------------------------
      1          1           0       11.737100    1.554030    8.939110
      2          8           0       12.353100    1.302200    7.905430
      3          6           0       10.771700    0.769680    8.056700
      4          8           0       10.901700    1.115710    9.976640
 ---------------------------------------------------------------------
                    Distance matrix (angstroms):
                    1          2          3          4
     1  H    0.000000
     2  O    1.229377   0.000000
     3  C    1.525074   1.675496   0.000000
     4  O    1.402315   2.535991   1.955200   0.000000
 Stoichiometry    CHO2(2)
 Framework group  C1[X(CHO2)]
 Deg. of freedom     6
 Full point group                 C1      NOp   1
 Largest Abelian subgroup         C1      NOp   1
 Largest concise Abelian subgroup C1      NOp   1
                         Standard orientation:                         
 ---------------------------------------------------------------------
 Center     Atomic      Atomic             Coordinates (Angstroms)
 Number     Number       Type             X           Y           Z
 ---------------------------------------------------------------------
      1          1           0        0.001598   -0.537274    0.262911
      2          8           0        1.189921   -0.400025   -0.020673
      3          6           0        0.201801    0.952799    0.007078
      4          8           0       -1.341472   -0.247414   -0.017500
 ---------------------------------------------------------------------
 Rotational constants (GHZ):          34.1528847           9.7190569           7.5839297
 Standard basis: 3-21G* (6D, 7F)
 There are    29 symmetry adapted cartesian basis functions of A   symmetry.
 There are    29 symmetry adapted basis functions of A   symmetry.
    29 basis functions,    48 primitive gaussians,    29 cartesian basis functions
    12 alpha electrons       11 beta electrons
       nuclear repulsion energy        50.0502619233 Hartrees.
 NAtoms=    4 NActive=    4 NUniq=    4 SFac= 1.00D+00 NAtFMM=   60 NAOKFM=F Big=F
 Integral buffers will be    131072 words long.
 Raffenetti 2 integral format.
 Two-electron integral symmetry is turned on.
 One-electron integrals computed using PRISM.
 PrsmSu:  requested number of processors reduced to:  31 ShMem   1 Linda.
 NBasis=    29 RedAO= T EigKep=  7.74D-02  NBF=    29
 NBsUse=    29 1.00D-06 EigRej= -1.00D+00 NBFU=    29
 ExpMin= 1.83D-01 ExpMax= 3.22D+02 ExpMxC= 3.22D+02 IAcc=3 IRadAn=         5 AccDes= 0.00D+00
 Harris functional with IExCor=  402 and IRadAn=       5 diagonalized for initial guess.
 HarFok:  IExCor=  402 AccDes= 0.00D+00 IRadAn=         5 IDoV= 1 UseB2=F ITyADJ=14
 ICtDFT=  3500011 ScaDFX=  1.000000  1.000000  1.000000  1.000000
 FoFCou: FMM=F IPFlag=           0 FMFlag=      100000 FMFlg1=           0
         NFxFlg=           0 DoJE=T BraDBF=F KetDBF=T FulRan=T
         wScrn=  0.000000 ICntrl=       500 IOpCl=  0 I1Cent=   200000004 NGrid=           0
         NMat0=    1 NMatS0=      1 NMatT0=    0 NMatD0=    1 NMtDS0=    0 NMtDT0=    0
 Petite list used in FoFCou.
 Initial guess <Sx>= 0.0000 <Sy>= 0.0000 <Sz>= 0.5000 <S**2>= 0.7500 S= 0.5000
 Keep R1 and R2 ints in memory in canonical form, NReq=55458556.
 Requested convergence on RMS density matrix=1.00D-08 within 128 cycles.
 Requested convergence on MAX density matrix=1.00D-06.
 Requested convergence on             energy=1.00D-06.
 No special actions if energy rises.
 Integral accuracy reduced to 1.0D-05 until final iterations.
 EnCoef did     2 forward-backward iterations
 EnCoef did   100 forward-backward iterations
 EnCoef did     1 forward-backward iterations
 EnCoef did     5 forward-backward iterations
 Initial convergence to 1.0D-05 achieved.  Increase integral accuracy.
 SCF Done:  E(UB3LYP) =  -187.792753679     A.U. after   34 cycles
            NFock= 34  Conv=0.10D-07     -V/T= 2.0113
 <Sx>= 0.0000 <Sy>= 0.0000 <Sz>= 0.5000 <S**2>= 0.8637 S= 0.5553
 <L.S>= 0.000000000000E+00
 Annihilation of the first spin contaminant:
 S**2 before annihilation     0.8637,   after     0.7566

 **********************************************************************

            Population analysis using the SCF Density.

 **********************************************************************

 Orbital symmetries:
 Alpha Orbitals:
       Occupied  (A) (A) (A) (A) (A) (A) (A) (A) (A) (A) (A) (A)
       Virtual   (A) (A) (A) (A) (A) (A) (A) (A) (A) (A) (A) (A)
                 (A) (A) (A) (A) (A)
 Beta  Orbitals:
       Occupied  (A) (A) (A) (A) (A) (A) (A) (A) (A) (A) (A)
       Virtual   (A) (A) (A) (A) (A) (A) (A) (A) (A) (A) (A) (A)
                 (A) (A) (A) (A) (A) (A)
 The electronic state is 2-A.
 Alpha  occ. eigenvalues --  -19.14606 -19.13998 -10.34061  -1.04518  -0.97572
 Alpha  occ. eigenvalues --   -0.60887  -0.48723  -0.42673  -0.40656  -0.37655
 Alpha  occ. eigenvalues --   -0.34497  -0.33224
 Alpha virt. eigenvalues --   -0.14778  -0.08811  -0.00165   0.12397   0.66832
 Alpha virt. eigenvalues --    0.68274   0.71327   0.81450   1.18118   1.32401
 Alpha virt. eigenvalues --    1.37173   1.46202   1.50437   1.57956   1.61717
 Alpha virt. eigenvalues --    2.31949   2.80431
  Beta  occ. eigenvalues --  -19.13285 -19.11928 -10.34609  -1.02166  -0.90341
  Beta  occ. eigenvalues --   -0.61286  -0.48161  -0.38879  -0.35341  -0.32022
  Beta  occ. eigenvalues --   -0.31257
  Beta virt. eigenvalues --   -0.18822  -0.13963  -0.08691  -0.00343   0.13060
  Beta virt. eigenvalues --    0.65223   0.67617   0.70110   0.81271   1.17572
  Beta virt. eigenvalues --    1.40214   1.42873   1.48616   1.53390   1.59110
  Beta virt. eigenvalues --    1.62706   2.36154   2.83283
          Condensed to atoms (all electrons):
               1          2          3          4
     1  H    0.525699   0.115540  -0.092509   0.081260
     2  O    0.115540   8.071876   0.176658  -0.029085
     3  C   -0.092509   0.176658   5.664421   0.103876
     4  O    0.081260  -0.029085   0.103876   8.026524
          Atomic-Atomic Spin Densities.
               1          2          3          4
     1  H   -0.026923   0.003927   0.017554  -0.013172
     2  O    0.003927   0.311942  -0.011121  -0.000918
     3  C    0.017554  -0.011121  -0.401628  -0.022897
     4  O   -0.013172  -0.000918  -0.022897   1.169865
 Mulliken charges and spin densities:
               1          2
     1  H    0.370011  -0.018614
     2  O   -0.334990   0.303830
     3  C    0.147554  -0.418093
     4  O   -0.182574   1.132877
 Sum of Mulliken charges =   0.00000   1.00000
 Mulliken charges and spin densities with hydrogens summed into heavy atoms:
               1          2
     2  O    0.035021   0.285215
     3  C    0.147554  -0.418093
     4  O   -0.182574   1.132877
 Electronic spatial extent (au):  <R**2>=            159.9917
 Charge=              0.0000 electrons
 Dipole moment (field-independent basis, Debye):
    X=             -0.2136    Y=              0.0602    Z=              0.4062  Tot=              0.4629
 Quadrupole moment (field-independent basis, Debye-Ang):
   XX=            -20.4354   YY=            -17.7918   ZZ=            -15.8254
   XY=              0.5829   XZ=             -0.2371   YZ=             -0.1427
 Traceless Quadrupole moment (field-independent basis, Debye-Ang):
   XX=             -2.4179   YY=              0.2257   ZZ=              2.1922
   XY=              0.5829   XZ=             -0.2371   YZ=             -0.1427
 Octapole moment (field-independent basis, Debye-Ang**2):
  XXX=             -1.5260  YYY=             -7.8138  ZZZ=             -0.1070  XYY=             -0.3941
  XXY=             -0.7701  XXZ=              0.6042  XZZ=             -0.9328  YZZ=             -1.8939
  YYZ=             -0.2269  XYZ=             -0.2549
 Hexadecapole moment (field-independent basis, Debye-Ang**3):
 XXXX=           -118.6863 YYYY=            -57.3035 ZZZZ=            -11.9599 XXXY=             -0.2397
 XXXZ=             -1.2831 YYYX=             -1.2719 YYYZ=             -0.2341 ZZZX=             -0.0862
 ZZZY=             -0.0106 XXYY=            -27.5345 XXZZ=            -19.8649 YYZZ=            -10.7181
 XXYZ=              0.1040 YYXZ=              0.0143 ZZXY=             -0.2017
 N-N= 5.005026192330D+01 E-N=-5.417058405996D+02  KE= 1.856958174349D+02
                          Isotropic Fermi Contact Couplings
        Atom                 a.u.       MegaHertz       Gauss      10(-4) cm-1
     1  H(1)              -0.00446     -19.92926      -7.11126      -6.64769
     2  O(17)              0.01916     -11.61371      -4.14406      -3.87392
     3  C(13)              0.00939      10.55203       3.76523       3.51978
     4  O(17)              0.09034     -54.76239     -19.54058     -18.26677
 --------------------------------------------------------
       Center         ----  Spin Dipole Couplings  ----
                      3XX-RR        3YY-RR        3ZZ-RR
 --------------------------------------------------------
     1   Atom        0.117842     -0.085572     -0.032270
     2   Atom       -0.489113     -0.418547      0.907661
     3   Atom        0.087668      0.074723     -0.162392
     4   Atom       -1.156159     -1.110832      2.266991
 --------------------------------------------------------
                        XY            XZ            YZ
 --------------------------------------------------------
     1   Atom       -0.026100      0.021016     -0.000771
     2   Atom       -0.064422      0.457746      0.145977
     3   Atom       -0.096387     -0.004828      0.009380
     4   Atom        0.044192     -1.261397      1.023259
 --------------------------------------------------------


 ---------------------------------------------------------------------------------
              Anisotropic Spin Dipole Couplings in Principal Axis System
 ---------------------------------------------------------------------------------

       Atom             a.u.   MegaHertz   Gauss  10(-4) cm-1        Axes

              Baa    -0.0889   -47.450   -16.931   -15.827  0.1286  0.9911 -0.0342
     1 H(1)   Bbb    -0.0350   -18.682    -6.666    -6.232 -0.1275  0.0507  0.9905
              Bcc     0.1239    66.132    23.598    22.059  0.9835 -0.1230  0.1329
 
              Baa    -0.6699    48.472    17.296    16.168  0.8732  0.3920 -0.2896
     2 O(17)  Bbb    -0.3845    27.821     9.927     9.280 -0.3988  0.9162  0.0378
              Bcc     1.0544   -76.293   -27.223   -25.449  0.2802  0.0825  0.9564
 
              Baa    -0.1628   -21.842    -7.794    -7.286  0.0048 -0.0375  0.9993
     3 C(13)  Bbb    -0.0153    -2.056    -0.734    -0.686  0.6837  0.7294  0.0241
              Bcc     0.1781    23.898     8.527     7.971  0.7297 -0.6831 -0.0292
 
              Baa    -1.8262   132.141    47.151    44.077  0.7321 -0.5728  0.3688
     4 O(17)  Bbb    -1.0854    78.538    28.024    26.197  0.6184  0.7858 -0.0072
              Bcc     2.9116  -210.679   -75.175   -70.275 -0.2857  0.2333  0.9295
 

 ---------------------------------------------------------------------------------

 PrsmSu:  requested number of processors reduced to:  31 ShMem   1 Linda.
 Calling FoFJK, ICntrl=      2127 FMM=F ISym2X=0 I1Cent= 0 IOpClX= 1 NMat=1 NMatS=1 NMatT=0.
 ***** Axes restored to original set *****
 -------------------------------------------------------------------
 Center     Atomic                   Forces (Hartrees/Bohr)
 Number     Number              X              Y              Z
 -------------------------------------------------------------------
      1        1           0.045954858    0.013561191    0.023884089
      2        8          -0.135103384   -0.030337327    0.032138769
      3        6           0.086326943    0.017091460    0.001474896
      4        8           0.002821583   -0.000315324   -0.057497754
 -------------------------------------------------------------------
 Cartesian Forces:  Max     0.135103384 RMS     0.053333127

 GradGradGradGradGradGradGradGradGradGradGradGradGradGradGradGradGradGrad
 Berny optimization.
 Search for a local minimum.
 Step number   1 out of a maximum of    2
 All quantities printed in internal units (Hartrees-Bohrs-Radians)
 Second derivative matrix not updated -- first step.
 The second derivative matrix:
                          X1        Y1        Z1        X2        Y2
           X1           0.07588
           Y1          -0.01192   0.01623
           Z1          -0.08679   0.04410   0.16393
           X2          -0.07677   0.01139   0.08639   0.24905
           Y2           0.01906  -0.01198  -0.04088   0.03883   0.02985
           Z2           0.10267  -0.03466  -0.15677  -0.11940   0.03188
           X3           0.00089   0.00053   0.00040  -0.17228  -0.05790
           Y3          -0.00714  -0.00425  -0.00322  -0.05023  -0.01786
           Z3          -0.01588  -0.00944  -0.00716   0.03301   0.00900
           X4           0.00000   0.00000   0.00000   0.00000   0.00000
           Y4           0.00000   0.00000   0.00000   0.00000   0.00000
           Z4           0.00000   0.00000   0.00000   0.00000   0.00000
                          Z2        X3        Y3        Z3        X4
           Z2           0.16441
           X3           0.01673   0.17139
           Y3           0.00279   0.05737   0.02211
           Z3          -0.00764  -0.01713   0.00044   0.01481
           X4           0.00000   0.00000   0.00000   0.00000   1.00000
           Y4           0.00000   0.00000   0.00000   0.00000   0.00000
           Z4           0.00000   0.00000   0.00000   0.00000   0.00000
                          Y4        Z4
           Y4           1.00000
           Z4           0.00000   1.00000
 ITU=  0
     Eigenvalues ---    0.03459   0.04553   0.19056   0.29919   0.48432
     Eigenvalues ---    0.69991
 Quadratic step=1.199D+00 exceeds max=3.000D-01 adjusted using Lamda=-2.588D-01.
 Angle between NR and scaled steps=  36.23 degrees.
 Angle between quadratic step and forces=  22.46 degrees.
 Linear search not attempted -- first point.
 B after Tr=    -0.034101   -0.281899    0.031925
         Rot=    0.999987    0.003049   -0.000814   -0.003994 Ang=   0.58 deg.
 Variable       Old X    -DE/DX   Delta X   Delta X   Delta X     New X
                                 (Linear)    (Quad)   (Total)
    X1       22.17990   0.04595   0.00000   0.13330   0.10189  22.28179
    Y1        2.93669   0.01356   0.00000   0.04632   0.04621   2.98290
    Z1       16.89247   0.02388   0.00000   0.11225   0.08879  16.98126
    X2       23.34398  -0.13510   0.00000  -0.17300  -0.20319  23.14079
    Y2        2.46080  -0.03034   0.00000  -0.04460  -0.05029   2.41051
    Z2       14.93910   0.03214   0.00000   0.02577   0.00438  14.94348
    X3       20.35556   0.08633   0.00000   0.14313   0.12088  20.47644
    Y3        1.45448   0.01709   0.00000   0.03056   0.00512   1.45960
    Z3       15.22496   0.00147   0.00000  -0.00796  -0.01926  15.20569
    X4       20.60123   0.00282   0.00000   0.00192  -0.01958  20.58164
    Y4        2.10839  -0.00032   0.00000   0.00176  -0.00103   2.10736
    Z4       18.85312  -0.05750   0.00000  -0.05856  -0.07392  18.77920
         Item               Value     Threshold  Converged?
 Maximum Force            0.135103     0.000450     NO 
 RMS     Force            0.053333     0.000300     NO 
 Maximum Displacement     0.203186     0.001800     NO 
 RMS     Displacement     0.084208     0.001200     NO 
 Predicted change in Energy=-3.604302D-02
 GradGradGradGradGradGradGradGradGradGradGradGradGradGradGradGradGradGrad

 1\1\GINC-H08R06\Force\UB3LYP\3-21G*\C1H1O2(2)\ACKGYDJ0BD\09-Jul-2026\0
 \\#force b3lyp/3-21G* Geom=PrintInputOrient\\Generated by MDDatasetMak
 er (Author: Jinzhe Zeng)\\0,2\H,11.7371,1.55403,8.93911\O,12.3531,1.30
 22,7.90543\C,10.7717,0.76968,8.0567\O,10.9017,1.11571,9.97664\\Version
 =EM64L-G16RevB.01\State=2-A\HF=-187.7927537\S2=0.863676\S2-1=0.\S2A=0.
 75659\RMSD=9.956e-09\RMSF=5.333e-02\Dipole=-0.1176368,0.1346962,0.0343
 787\Quadrupole=-0.5503476,1.455004,-0.9046564,-0.6428842,1.0589152,0.1
 852133\PG=C01 [X(C1H1O2)]\\@


 PERICLES, SOPHOCLES,
 PELOPONESIAN WAR,
 FRENCH VERBS, LATIN VERBS
 H2SO4.
 Job cpu time:       0 days  0 hours  3 minutes 29.7 seconds.
 Elapsed time:       0 days  0 hours  0 minutes  4.0 seconds.
 File lengths (MBytes):  RWF=      6 Int=      0 D2E=      0 Chk=      1 Scr=      1
 Normal termination of Gaussian 16 at Thu Jul  9 10:26:03 2026.
