 Entering Gaussian System, Link 0=g16
 Input=loop1_C11_01.gjf
 Output=loop1_C11_01.log
 Initial command:
 /work/home/ackgydj0bd/apprepo/gaussian/16b.01-none_v1.3/app/g16/l1.exe "/work/home/ackgydj0bd/apprepo/gaussian/16b.01-none_v1.3/app/g16/scratch/Gau-239569.inp" -scrdir="/work/home/ackgydj0bd/apprepo/gaussian/16b.01-none_v1.3/app/g16/scratch/"
 Entering Link 1 = /work/home/ackgydj0bd/apprepo/gaussian/16b.01-none_v1.3/app/g16/l1.exe PID=    239570.
  
 Copyright (c) 1988-2017, Gaussian, Inc.  All Rights Reserved.
  
 This is part of the Gaussian(R) 16 program.  It is based on
 the Gaussian(R) 09 system (copyright 2009, Gaussian, Inc.),
 the Gaussian(R) 03 system (copyright 2003, Gaussian, Inc.),
 the Gaussian(R) 98 system (copyright 1998, Gaussian, Inc.),
 the Gaussian(R) 94 system (copyright 1995, Gaussian, Inc.),
 the Gaussian 92(TM) system (copyright 1992, Gaussian, Inc.),
 the Gaussian 90(TM) system (copyright 1990, Gaussian, Inc.),
 the Gaussian 88(TM) system (copyright 1988, Gaussian, Inc.),
 the Gaussian 86(TM) system (copyright 1986, Carnegie Mellon
 University), and the Gaussian 82(TM) system (copyright 1983,
 Carnegie Mellon University). Gaussian is a federally registered
 trademark of Gaussian, Inc.
  
 This software contains proprietary and confidential information,
 including trade secrets, belonging to Gaussian, Inc.
  
 This software is provided under written license and may be
 used, copied, transmitted, or stored only in accord with that
 written license.
  
 The following legend is applicable only to US Government
 contracts under FAR:
  
                    RESTRICTED RIGHTS LEGEND
  
 Use, reproduction and disclosure by the US Government is
 subject to restrictions as set forth in subparagraphs (a)
 and (c) of the Commercial Computer Software - Restricted
 Rights clause in FAR 52.227-19.
  
 Gaussian, Inc.
 340 Quinnipiac St., Bldg. 40, Wallingford CT 06492
  
  
 ---------------------------------------------------------------
 Warning -- This program may not be used in any manner that
 competes with the business of Gaussian, Inc. or will provide
 assistance to any competitor of Gaussian, Inc.  The licensee
 of this program is prohibited from giving any competitor of
 Gaussian, Inc. access to this program.  By using this program,
 the user acknowledges that Gaussian, Inc. is engaged in the
 business of creating and licensing software in the field of
 computational chemistry and represents and warrants to the
 licensee that it is not a competitor of Gaussian, Inc. and that
 it will not use this program in any manner prohibited above.
 ---------------------------------------------------------------
  

 Cite this work as:
 Gaussian 16, Revision B.01,
 M. J. Frisch, G. W. Trucks, H. B. Schlegel, G. E. Scuseria, 
 M. A. Robb, J. R. Cheeseman, G. Scalmani, V. Barone, 
 G. A. Petersson, H. Nakatsuji, X. Li, M. Caricato, A. V. Marenich, 
 J. Bloino, B. G. Janesko, R. Gomperts, B. Mennucci, H. P. Hratchian, 
 J. V. Ortiz, A. F. Izmaylov, J. L. Sonnenberg, D. Williams-Young, 
 F. Ding, F. Lipparini, F. Egidi, J. Goings, B. Peng, A. Petrone, 
 T. Henderson, D. Ranasinghe, V. G. Zakrzewski, J. Gao, N. Rega, 
 G. Zheng, W. Liang, M. Hada, M. Ehara, K. Toyota, R. Fukuda, 
 J. Hasegawa, M. Ishida, T. Nakajima, Y. Honda, O. Kitao, H. Nakai, 
 T. Vreven, K. Throssell, J. A. Montgomery, Jr., J. E. Peralta, 
 F. Ogliaro, M. J. Bearpark, J. J. Heyd, E. N. Brothers, K. N. Kudin, 
 V. N. Staroverov, T. A. Keith, R. Kobayashi, J. Normand, 
 K. Raghavachari, A. P. Rendell, J. C. Burant, S. S. Iyengar, 
 J. Tomasi, M. Cossi, J. M. Millam, M. Klene, C. Adamo, R. Cammi, 
 J. W. Ochterski, R. L. Martin, K. Morokuma, O. Farkas, 
 J. B. Foresman, and D. J. Fox, Gaussian, Inc., Wallingford CT, 2016.
 
 ******************************************
 Gaussian 16:  EM64L-G16RevB.01 20-Dec-2017
                 9-Jul-2026 
 ******************************************
 %nproc=64
 Will use up to   64 processors via shared memory.
 -----------------------------------------
 #force b3lyp/3-21G* Geom=PrintInputOrient
 -----------------------------------------
 1/10=7,30=1,38=1/1,3;
 2/9=2000,12=2,17=6,18=5,40=1/2;
 3/5=5,7=1,11=2,25=1,30=1,71=1,74=-5/1,2,3;
 4//1;
 5/5=2,38=5/2;
 6/7=2,8=2,9=2,10=2,28=1/1;
 7/29=1/1,2,3,16;
 1/10=7,30=1/3;
 99//99;
 -------------------------------------------------
 Generated by MDDatasetMaker (Author: Jinzhe Zeng)
 -------------------------------------------------
 Symbolic Z-matrix:
 Charge =  0 Multiplicity = 1
 C                     21.8225   27.6295   0.20682 
 O                     20.8678   27.0651   1.57203 
 O                     22.6587   27.0629   1.50398 
 

 GradGradGradGradGradGradGradGradGradGradGradGradGradGradGradGradGradGrad
 Berny optimization.
 Initialization pass.
 Trust Radius=3.00D-01 FncErr=1.00D-07 GrdErr=1.00D-07 EigMax=2.50D+02 EigMin=1.00D-04
 Number of steps in this run=      2 maximum allowed number of steps=      2.
 GradGradGradGradGradGradGradGradGradGradGradGradGradGradGradGradGradGrad

                          Input orientation:                          
 ---------------------------------------------------------------------
 Center     Atomic      Atomic             Coordinates (Angstroms)
 Number     Number       Type             X           Y           Z
 ---------------------------------------------------------------------
      1          6           0       21.822500   27.629500    0.206820
      2          8           0       20.867800   27.065100    1.572030
      3          8           0       22.658700   27.062900    1.503980
 ---------------------------------------------------------------------
                    Distance matrix (angstroms):
                    1          2          3
     1  C    0.000000
     2  O    1.758919   0.000000
     3  O    1.644047   1.792194   0.000000
 Stoichiometry    CO2
 Framework group  CS[SG(CO2)]
 Deg. of freedom     3
 Full point group                 CS      NOp   2
 Largest Abelian subgroup         CS      NOp   2
 Largest concise Abelian subgroup C1      NOp   1
                         Standard orientation:                         
 ---------------------------------------------------------------------
 Center     Atomic      Atomic             Coordinates (Angstroms)
 Number     Number       Type             X           Y           Z
 ---------------------------------------------------------------------
      1          6           0        0.988535   -0.362058    0.000000
      2          8           0       -0.741401   -0.680053    0.000000
      3          8           0        0.000000    0.951597    0.000000
 ---------------------------------------------------------------------
 Rotational constants (GHZ):          28.1689869          19.4140053          11.4930322
 Standard basis: 3-21G* (6D, 7F)
 There are    21 symmetry adapted cartesian basis functions of A'  symmetry.
 There are     6 symmetry adapted cartesian basis functions of A"  symmetry.
 There are    21 symmetry adapted basis functions of A'  symmetry.
 There are     6 symmetry adapted basis functions of A"  symmetry.
    27 basis functions,    45 primitive gaussians,    27 cartesian basis functions
    11 alpha electrons       11 beta electrons
       nuclear repulsion energy        48.7881034734 Hartrees.
 NAtoms=    3 NActive=    3 NUniq=    3 SFac= 1.00D+00 NAtFMM=   60 NAOKFM=F Big=F
 Integral buffers will be    131072 words long.
 Raffenetti 2 integral format.
 Two-electron integral symmetry is turned on.
 One-electron integrals computed using PRISM.
 PrsmSu:  requested number of processors reduced to:  31 ShMem   1 Linda.
 NBasis=    27 RedAO= T EigKep=  7.49D-02  NBF=    21     6
 NBsUse=    27 1.00D-06 EigRej= -1.00D+00 NBFU=    21     6
 ExpMin= 1.96D-01 ExpMax= 3.22D+02 ExpMxC= 3.22D+02 IAcc=3 IRadAn=         5 AccDes= 0.00D+00
 Harris functional with IExCor=  402 and IRadAn=       5 diagonalized for initial guess.
 HarFok:  IExCor=  402 AccDes= 0.00D+00 IRadAn=         5 IDoV= 1 UseB2=F ITyADJ=14
 ICtDFT=  3500011 ScaDFX=  1.000000  1.000000  1.000000  1.000000
 FoFCou: FMM=F IPFlag=           0 FMFlag=      100000 FMFlg1=           0
         NFxFlg=           0 DoJE=T BraDBF=F KetDBF=T FulRan=T
         wScrn=  0.000000 ICntrl=       500 IOpCl=  0 I1Cent=   200000004 NGrid=           0
         NMat0=    1 NMatS0=      1 NMatT0=    0 NMatD0=    1 NMtDS0=    0 NMtDT0=    0
 Petite list used in FoFCou.
 Initial guess orbital symmetries:
       Occupied  (A') (A') (A') (A') (A') (A') (A') (A") (A') (A')
                 (A")
       Virtual   (A') (A") (A') (A') (A') (A") (A') (A') (A") (A')
                 (A") (A') (A') (A') (A') (A')
 The electronic state of the initial guess is 1-A'.
 Keep R1 ints in memory in symmetry-blocked form, NReq=55332302.
 Requested convergence on RMS density matrix=1.00D-08 within 128 cycles.
 Requested convergence on MAX density matrix=1.00D-06.
 Requested convergence on             energy=1.00D-06.
 No special actions if energy rises.
 Integral accuracy reduced to 1.0D-05 until final iterations.
 EnCoef did     1 forward-backward iterations
 EnCoef did   100 forward-backward iterations
 EnCoef did     2 forward-backward iterations
 Initial convergence to 1.0D-05 achieved.  Increase integral accuracy.
 SCF Done:  E(RB3LYP) =  -187.224183144     A.U. after   16 cycles
            NFock= 16  Conv=0.71D-08     -V/T= 2.0128

 **********************************************************************

            Population analysis using the SCF Density.

 **********************************************************************

 Orbital symmetries:
       Occupied  (A') (A') (A') (A') (A') (A') (A') (A") (A') (A')
                 (A")
       Virtual   (A") (A') (A') (A') (A') (A") (A') (A') (A") (A')
                 (A") (A') (A') (A') (A') (A')
 The electronic state is 1-A'.
 Alpha  occ. eigenvalues --  -19.17274 -19.15723 -10.35409  -1.05906  -0.90080
 Alpha  occ. eigenvalues --   -0.61067  -0.43042  -0.40501  -0.39191  -0.35865
 Alpha  occ. eigenvalues --   -0.30700
 Alpha virt. eigenvalues --   -0.15273  -0.14827  -0.06781   0.02301   0.66287
 Alpha virt. eigenvalues --    0.66410   0.68177   1.13337   1.33879   1.36628
 Alpha virt. eigenvalues --    1.46153   1.51011   1.52726   1.56847   2.43720
 Alpha virt. eigenvalues --    2.71790
          Condensed to atoms (all electrons):
               1          2          3
     1  C    5.398350   0.125883   0.140933
     2  O    0.125883   7.933165   0.096060
     3  O    0.140933   0.096060   7.942734
 Mulliken charges:
               1
     1  C    0.334834
     2  O   -0.155108
     3  O   -0.179727
 Sum of Mulliken charges =   0.00000
 Mulliken charges with hydrogens summed into heavy atoms:
               1
     1  C    0.334834
     2  O   -0.155108
     3  O   -0.179727
 Electronic spatial extent (au):  <R**2>=            114.3442
 Charge=              0.0000 electrons
 Dipole moment (field-independent basis, Debye):
    X=              1.0337    Y=             -0.2959    Z=              0.0000  Tot=              1.0753
 Quadrupole moment (field-independent basis, Debye-Ang):
   XX=            -16.3184   YY=            -16.1926   ZZ=            -15.6576
   XY=              0.2762   XZ=              0.0000   YZ=              0.0000
 Traceless Quadrupole moment (field-independent basis, Debye-Ang):
   XX=             -0.2622   YY=             -0.1364   ZZ=              0.3986
   XY=              0.2762   XZ=              0.0000   YZ=              0.0000
 Octapole moment (field-independent basis, Debye-Ang**2):
  XXX=             -7.3069  YYY=              1.5826  ZZZ=              0.0000  XYY=             -2.1259
  XXY=              1.6788  XXZ=              0.0000  XZZ=             -1.2182  YZZ=              0.5708
  YYZ=              0.0000  XYZ=              0.0000
 Hexadecapole moment (field-independent basis, Debye-Ang**3):
 XXXX=            -64.8103 YYYY=            -54.4974 ZZZZ=            -11.2279 XXXY=              0.5288
 XXXZ=              0.0000 YYYX=              0.2799 YYYZ=              0.0000 ZZZX=              0.0000
 ZZZY=              0.0000 XXYY=            -19.5468 XXZZ=            -11.9414 YYZZ=            -11.6367
 XXYZ=              0.0000 YYXZ=              0.0000 ZZXY=             -0.7147
 N-N= 4.878810347336D+01 E-N=-5.377822555690D+02  KE= 1.848612525383D+02
 Symmetry A'   KE= 1.755423519292D+02
 Symmetry A"   KE= 9.318900609091D+00
 PrsmSu:  requested number of processors reduced to:  31 ShMem   1 Linda.
 Calling FoFJK, ICntrl=      2127 FMM=F ISym2X=1 I1Cent= 0 IOpClX= 0 NMat=1 NMatS=1 NMatT=0.
 ***** Axes restored to original set *****
 -------------------------------------------------------------------
 Center     Atomic                   Forces (Hartrees/Bohr)
 Number     Number              X              Y              Z
 -------------------------------------------------------------------
      1        6           0.005726265   -0.059284102    0.139066504
      2        8           0.092608431    0.025757240   -0.064308331
      3        8          -0.098334696    0.033526863   -0.074758172
 -------------------------------------------------------------------
 Cartesian Forces:  Max     0.139066504 RMS     0.076481481

 GradGradGradGradGradGradGradGradGradGradGradGradGradGradGradGradGradGrad
 Berny optimization.
 Search for a local minimum.
 Step number   1 out of a maximum of    2
 All quantities printed in internal units (Hartrees-Bohrs-Radians)
 Second derivative matrix not updated -- first step.
 The second derivative matrix:
                          X1        Y1        Z1        X2        Y2
           X1           0.13535
           Y1           0.00552   0.89339
           Z1           0.02237   0.25028   0.41100
           X2          -0.05858  -0.01459   0.03668   0.21844
           Y2          -0.03837  -0.01899   0.04620   0.03981   0.86741
           Z2           0.09256   0.04523  -0.11005  -0.06158   0.30991
           X3          -0.07651   0.02379  -0.05278  -0.15960   0.01329
           Y3           0.04758  -0.02796   0.06375  -0.01049  -0.00198
           Z3          -0.10866   0.06472  -0.14764   0.03117   0.00412
                          Z2        X3        Y3        Z3
           Z2           0.27431
           X3          -0.02471   0.23637
           Y3           0.00509  -0.02236   0.87638
           Z3          -0.01095   0.08376   0.29139   0.31190
 ITU=  0
     Eigenvalues ---    0.32532   0.36849   0.52689
 Quadratic step=4.507D-01 exceeds max=3.000D-01 adjusted using Lamda=-2.514D-01.
 Angle between NR and scaled steps=   2.45 degrees.
 Angle between quadratic step and forces=   4.81 degrees.
 ClnCor:  largest displacement from symmetrization is 9.41D-17 for atom     1.
 Linear search not attempted -- first point.
 ClnCor:  largest displacement from symmetrization is 1.78D-15 for atom     1.
 B after Tr=     0.002261    0.001741   -0.004184
         Rot=    1.000000   -0.000001   -0.000053   -0.000022 Ang=  -0.01 deg.
 Variable       Old X    -DE/DX   Delta X   Delta X   Delta X     New X
                                 (Linear)    (Quad)   (Total)
    X1       41.23855   0.00573   0.00000  -0.00382  -0.00384  41.23471
    Y1       52.21219  -0.05928   0.00000  -0.08023  -0.07664  52.13555
    Z1        0.39083   0.13907   0.00000   0.18866   0.18023   0.57107
    X2       39.43443   0.09261   0.00000   0.12892   0.12919  39.56362
    Y2       51.14563   0.02576   0.00000   0.03333   0.03684  51.18247
    Z2        2.97071  -0.06431   0.00000  -0.08359  -0.09184   2.87886
    X3       42.81874  -0.09833   0.00000  -0.12561  -0.12535  42.69338
    Y3       51.14147   0.03353   0.00000   0.03615   0.03980  51.18127
    Z3        2.84211  -0.07476   0.00000  -0.07980  -0.08839   2.75372
         Item               Value     Threshold  Converged?
 Maximum Force            0.139067     0.000450     NO 
 RMS     Force            0.076481     0.000300     NO 
 Maximum Displacement     0.180232     0.001800     NO 
 RMS     Displacement     0.099980     0.001200     NO 
 Predicted change in Energy=-4.567652D-02
 GradGradGradGradGradGradGradGradGradGradGradGradGradGradGradGradGradGrad

 1\1\GINC-H08R06\Force\RB3LYP\3-21G*\C1O2\ACKGYDJ0BD\09-Jul-2026\0\\#fo
 rce b3lyp/3-21G* Geom=PrintInputOrient\\Generated by MDDatasetMaker (A
 uthor: Jinzhe Zeng)\\0,1\C,21.8225,27.6295,0.20682\O,20.8678,27.0651,1
 .57203\O,22.6587,27.0629,1.50398\\Version=EM64L-G16RevB.01\State=1-A'\
 HF=-187.2241831\RMSD=7.122e-09\RMSF=7.648e-02\Dipole=0.0478076,0.16389
 37,-0.3870578\Quadrupole=0.0300093,0.1995321,-0.2295414,0.0479233,-0.1
 017159,0.2255909\PG=CS [SG(C1O2)]\\@


 Where a calculator on the ENIAC is equipped with 18,000
 vacuum tubes and weighs 30 tons, computers inthe future
 may  have only 1,000 vacuum tubes and weigh only 1 1/2 tons.
              ---Popular Mechanics, March 1949
 Job cpu time:       0 days  0 hours  3 minutes  9.5 seconds.
 Elapsed time:       0 days  0 hours  0 minutes  3.9 seconds.
 File lengths (MBytes):  RWF=      6 Int=      0 D2E=      0 Chk=      1 Scr=      1
 Normal termination of Gaussian 16 at Thu Jul  9 10:26:25 2026.
