 Entering Gaussian System, Link 0=g16
 Input=loop1_H_01.gjf
 Output=loop1_H_01.log
 Initial command:
 /work/home/ackgydj0bd/apprepo/gaussian/16b.01-none_v1.3/app/g16/l1.exe "/work/home/ackgydj0bd/apprepo/gaussian/16b.01-none_v1.3/app/g16/scratch/Gau-259898.inp" -scrdir="/work/home/ackgydj0bd/apprepo/gaussian/16b.01-none_v1.3/app/g16/scratch/"
 Entering Link 1 = /work/home/ackgydj0bd/apprepo/gaussian/16b.01-none_v1.3/app/g16/l1.exe PID=    259899.
  
 Copyright (c) 1988-2017, Gaussian, Inc.  All Rights Reserved.
  
 This is part of the Gaussian(R) 16 program.  It is based on
 the Gaussian(R) 09 system (copyright 2009, Gaussian, Inc.),
 the Gaussian(R) 03 system (copyright 2003, Gaussian, Inc.),
 the Gaussian(R) 98 system (copyright 1998, Gaussian, Inc.),
 the Gaussian(R) 94 system (copyright 1995, Gaussian, Inc.),
 the Gaussian 92(TM) system (copyright 1992, Gaussian, Inc.),
 the Gaussian 90(TM) system (copyright 1990, Gaussian, Inc.),
 the Gaussian 88(TM) system (copyright 1988, Gaussian, Inc.),
 the Gaussian 86(TM) system (copyright 1986, Carnegie Mellon
 University), and the Gaussian 82(TM) system (copyright 1983,
 Carnegie Mellon University). Gaussian is a federally registered
 trademark of Gaussian, Inc.
  
 This software contains proprietary and confidential information,
 including trade secrets, belonging to Gaussian, Inc.
  
 This software is provided under written license and may be
 used, copied, transmitted, or stored only in accord with that
 written license.
  
 The following legend is applicable only to US Government
 contracts under FAR:
  
                    RESTRICTED RIGHTS LEGEND
  
 Use, reproduction and disclosure by the US Government is
 subject to restrictions as set forth in subparagraphs (a)
 and (c) of the Commercial Computer Software - Restricted
 Rights clause in FAR 52.227-19.
  
 Gaussian, Inc.
 340 Quinnipiac St., Bldg. 40, Wallingford CT 06492
  
  
 ---------------------------------------------------------------
 Warning -- This program may not be used in any manner that
 competes with the business of Gaussian, Inc. or will provide
 assistance to any competitor of Gaussian, Inc.  The licensee
 of this program is prohibited from giving any competitor of
 Gaussian, Inc. access to this program.  By using this program,
 the user acknowledges that Gaussian, Inc. is engaged in the
 business of creating and licensing software in the field of
 computational chemistry and represents and warrants to the
 licensee that it is not a competitor of Gaussian, Inc. and that
 it will not use this program in any manner prohibited above.
 ---------------------------------------------------------------
  

 Cite this work as:
 Gaussian 16, Revision B.01,
 M. J. Frisch, G. W. Trucks, H. B. Schlegel, G. E. Scuseria, 
 M. A. Robb, J. R. Cheeseman, G. Scalmani, V. Barone, 
 G. A. Petersson, H. Nakatsuji, X. Li, M. Caricato, A. V. Marenich, 
 J. Bloino, B. G. Janesko, R. Gomperts, B. Mennucci, H. P. Hratchian, 
 J. V. Ortiz, A. F. Izmaylov, J. L. Sonnenberg, D. Williams-Young, 
 F. Ding, F. Lipparini, F. Egidi, J. Goings, B. Peng, A. Petrone, 
 T. Henderson, D. Ranasinghe, V. G. Zakrzewski, J. Gao, N. Rega, 
 G. Zheng, W. Liang, M. Hada, M. Ehara, K. Toyota, R. Fukuda, 
 J. Hasegawa, M. Ishida, T. Nakajima, Y. Honda, O. Kitao, H. Nakai, 
 T. Vreven, K. Throssell, J. A. Montgomery, Jr., J. E. Peralta, 
 F. Ogliaro, M. J. Bearpark, J. J. Heyd, E. N. Brothers, K. N. Kudin, 
 V. N. Staroverov, T. A. Keith, R. Kobayashi, J. Normand, 
 K. Raghavachari, A. P. Rendell, J. C. Burant, S. S. Iyengar, 
 J. Tomasi, M. Cossi, J. M. Millam, M. Klene, C. Adamo, R. Cammi, 
 J. W. Ochterski, R. L. Martin, K. Morokuma, O. Farkas, 
 J. B. Foresman, and D. J. Fox, Gaussian, Inc., Wallingford CT, 2016.
 
 ******************************************
 Gaussian 16:  EM64L-G16RevB.01 20-Dec-2017
                 9-Jul-2026 
 ******************************************
 %nproc=64
 Will use up to   64 processors via shared memory.
 -----------------------------------------
 #force b3lyp/3-21G* Geom=PrintInputOrient
 -----------------------------------------
 1/10=7,30=1,38=1/1,3;
 2/9=2000,12=2,17=6,18=5,40=1/2;
 3/5=5,7=1,11=2,25=1,30=1,71=1,74=-5/1,2,3;
 4//1;
 5/5=2,38=5/2;
 6/7=2,8=2,9=2,10=2,28=1/1;
 7/29=1/1,2,3,16;
 1/10=7,30=1/3;
 99//99;
 -------------------------------------------------
 Generated by MDDatasetMaker (Author: Jinzhe Zeng)
 -------------------------------------------------
 Symbolic Z-matrix:
 Charge =  0 Multiplicity = 4
 H                     19.3178   11.6679   16.5413 
 C                     20.1539   10.389    16.2704 
 H                     20.1087   11.6166   15.0408 
 H                     18.8006   12.258    14.5739 
 

 GradGradGradGradGradGradGradGradGradGradGradGradGradGradGradGradGradGrad
 Berny optimization.
 Initialization pass.
 Trust Radius=3.00D-01 FncErr=1.00D-07 GrdErr=1.00D-07 EigMax=2.50D+02 EigMin=1.00D-04
 Number of steps in this run=      2 maximum allowed number of steps=      2.
 GradGradGradGradGradGradGradGradGradGradGradGradGradGradGradGradGradGrad

                          Input orientation:                          
 ---------------------------------------------------------------------
 Center     Atomic      Atomic             Coordinates (Angstroms)
 Number     Number       Type             X           Y           Z
 ---------------------------------------------------------------------
      1          1           0       19.317800   11.667900   16.541300
      2          6           0       20.153900   10.389000   16.270400
      3          1           0       20.108700   11.616600   15.040800
      4          1           0       18.800600   12.258000   14.573900
 ---------------------------------------------------------------------
                    Distance matrix (angstroms):
                    1          2          3          4
     1  H    0.000000
     2  C    1.551785   0.000000
     3  H    1.696955   1.738091   0.000000
     4  H    2.118107   2.864035   1.529874   0.000000
 Stoichiometry    CH3(4)
 Framework group  C1[X(CH3)]
 Deg. of freedom     6
 Full point group                 C1      NOp   1
 Largest Abelian subgroup         C1      NOp   1
 Largest concise Abelian subgroup C1      NOp   1
                         Standard orientation:                         
 ---------------------------------------------------------------------
 Center     Atomic      Atomic             Coordinates (Angstroms)
 Number     Number       Type             X           Y           Z
 ---------------------------------------------------------------------
      1          1           0        0.476517    1.014470    0.194931
      2          6           0       -0.615622   -0.060658   -0.048727
      3          1           0        0.979201   -0.594541    0.389988
      4          1           0        2.238011   -0.055983   -0.292558
 ---------------------------------------------------------------------
 Rotational constants (GHZ):         292.2171397          49.5482522          44.6041471
 Standard basis: 3-21G* (6D, 7F)
 There are    15 symmetry adapted cartesian basis functions of A   symmetry.
 There are    15 symmetry adapted basis functions of A   symmetry.
    15 basis functions,    24 primitive gaussians,    15 cartesian basis functions
     6 alpha electrons        3 beta electrons
       nuclear repulsion energy         5.8889935633 Hartrees.
 NAtoms=    4 NActive=    4 NUniq=    4 SFac= 1.00D+00 NAtFMM=   60 NAOKFM=F Big=F
 Integral buffers will be    131072 words long.
 Raffenetti 2 integral format.
 Two-electron integral symmetry is turned on.
 One-electron integrals computed using PRISM.
 PrsmSu:  requested number of processors reduced to:  31 ShMem   1 Linda.
 NBasis=    15 RedAO= T EigKep=  1.13D-01  NBF=    15
 NBsUse=    15 1.00D-06 EigRej= -1.00D+00 NBFU=    15
 ExpMin= 1.83D-01 ExpMax= 1.72D+02 ExpMxC= 1.72D+02 IAcc=3 IRadAn=         5 AccDes= 0.00D+00
 Harris functional with IExCor=  402 and IRadAn=       5 diagonalized for initial guess.
 HarFok:  IExCor=  402 AccDes= 0.00D+00 IRadAn=         5 IDoV= 1 UseB2=F ITyADJ=14
 ICtDFT=  3500011 ScaDFX=  1.000000  1.000000  1.000000  1.000000
 FoFCou: FMM=F IPFlag=           0 FMFlag=      100000 FMFlg1=           0
         NFxFlg=           0 DoJE=T BraDBF=F KetDBF=T FulRan=T
         wScrn=  0.000000 ICntrl=       500 IOpCl=  0 I1Cent=   200000004 NGrid=           0
         NMat0=    1 NMatS0=      1 NMatT0=    0 NMatD0=    1 NMtDS0=    0 NMtDT0=    0
 Petite list used in FoFCou.
 Initial guess <Sx>= 0.0000 <Sy>= 0.0000 <Sz>= 1.5000 <S**2>= 3.7500 S= 1.5000
 Keep R1 and R2 ints in memory in canonical form, NReq=55229864.
 Requested convergence on RMS density matrix=1.00D-08 within 128 cycles.
 Requested convergence on MAX density matrix=1.00D-06.
 Requested convergence on             energy=1.00D-06.
 No special actions if energy rises.
 Integral accuracy reduced to 1.0D-05 until final iterations.
 Initial convergence to 1.0D-05 achieved.  Increase integral accuracy.
 SCF Done:  E(UB3LYP) =  -39.2652810874     A.U. after   18 cycles
            NFock= 18  Conv=0.62D-08     -V/T= 2.0155
 <Sx>= 0.0000 <Sy>= 0.0000 <Sz>= 1.5000 <S**2>= 3.7895 S= 1.5099
 <L.S>= 0.000000000000E+00
 Annihilation of the first spin contaminant:
 S**2 before annihilation     3.7895,   after     3.7501

 **********************************************************************

            Population analysis using the SCF Density.

 **********************************************************************

 Orbital symmetries:
 Alpha Orbitals:
       Occupied  (A) (A) (A) (A) (A) (A)
       Virtual   (A) (A) (A) (A) (A) (A) (A) (A) (A)
 Beta  Orbitals:
       Occupied  (A) (A) (A)
       Virtual   (A) (A) (A) (A) (A) (A) (A) (A) (A) (A) (A) (A)
 The electronic state is 4-A.
 Alpha  occ. eigenvalues --  -10.22819  -0.63197  -0.38933  -0.33430  -0.25600
 Alpha  occ. eigenvalues --   -0.24396
 Alpha virt. eigenvalues --   -0.04440  -0.00962   0.66411   0.71080   0.72637
 Alpha virt. eigenvalues --    0.83622   0.94436   1.02414   1.21342
  Beta  occ. eigenvalues --  -10.20259  -0.53457  -0.30759
  Beta virt. eigenvalues --   -0.19260  -0.09646  -0.05219   0.02849   0.05667
  Beta virt. eigenvalues --    0.75242   0.76844   0.78771   0.90798   1.03356
  Beta virt. eigenvalues --    1.04630   1.27824
          Condensed to atoms (all electrons):
               1          2          3          4
     1  H    0.637927   0.118635   0.023024   0.008399
     2  C    0.118635   6.027485   0.071326  -0.027172
     3  H    0.023024   0.071326   0.750887   0.111652
     4  H    0.008399  -0.027172   0.111652   0.971971
          Atomic-Atomic Spin Densities.
               1          2          3          4
     1  H    0.467184   0.040767  -0.060532  -0.011883
     2  C    0.040767   1.882382   0.099297  -0.023261
     3  H   -0.060532   0.099297  -0.125654  -0.034587
     4  H   -0.011883  -0.023261  -0.034587   0.756490
 Mulliken charges and spin densities:
               1          2
     1  H    0.212015   0.435535
     2  C   -0.190275   1.999184
     3  H    0.043110  -0.121477
     4  H   -0.064850   0.686758
 Sum of Mulliken charges =   0.00000   3.00000
 Mulliken charges and spin densities with hydrogens summed into heavy atoms:
               1          2
     2  C    0.000000   3.000000
 Electronic spatial extent (au):  <R**2>=             58.0116
 Charge=              0.0000 electrons
 Dipole moment (field-independent basis, Debye):
    X=              0.5482    Y=              0.6931    Z=              0.3950  Tot=              0.9679
 Quadrupole moment (field-independent basis, Debye-Ang):
   XX=            -11.2432   YY=             -7.9946   ZZ=             -9.9590
   XY=              1.0204   XZ=              0.3357   YZ=              0.1363
 Traceless Quadrupole moment (field-independent basis, Debye-Ang):
   XX=             -1.5109   YY=              1.7377   ZZ=             -0.2268
   XY=              1.0204   XZ=              0.3357   YZ=              0.1363
 Octapole moment (field-independent basis, Debye-Ang**2):
  XXX=             -3.8337  YYY=              1.5860  ZZZ=              0.2755  XYY=             -0.2638
  XXY=              0.2853  XXZ=              0.0234  XZZ=             -0.2732  YZZ=              0.1892
  YYZ=              0.3581  XYZ=             -0.0604
 Hexadecapole moment (field-independent basis, Debye-Ang**3):
 XXXX=            -75.9996 YYYY=            -15.4876 ZZZZ=            -12.3626 XXXY=              2.2142
 XXXZ=              0.5858 YYYX=              1.8367 YYYZ=              0.3930 ZZZX=              0.4235
 ZZZY=              0.1397 XXYY=            -14.1453 XXZZ=            -14.0355 YYZZ=             -4.7988
 XXYZ=             -0.0037 YYXZ=              0.4213 ZZXY=              0.3081
 N-N= 5.888993563335D+00 E-N=-1.022613425109D+02  KE= 3.866618618855D+01
                          Isotropic Fermi Contact Couplings
        Atom                 a.u.       MegaHertz       Gauss      10(-4) cm-1
     1  H(1)               0.14654     218.33733      77.90819      72.82949
     2  C(13)              0.17113      64.12891      22.88279      21.39110
     3  H(1)              -0.02721     -40.54316     -14.46681     -13.52374
     4  H(1)               0.18103     269.72529      96.24469      89.97067
 --------------------------------------------------------
       Center         ----  Spin Dipole Couplings  ----
                      3XX-RR        3YY-RR        3ZZ-RR
 --------------------------------------------------------
     1   Atom        0.037628      0.003976     -0.041604
     2   Atom       -0.249735     -0.292421      0.542157
     3   Atom        0.105704     -0.049467     -0.056237
     4   Atom        0.018161     -0.005983     -0.012178
 --------------------------------------------------------
                        XY            XZ            YZ
 --------------------------------------------------------
     1   Atom        0.068085      0.009944      0.021394
     2   Atom       -0.229848     -0.271138     -0.007904
     3   Atom       -0.017675      0.011756     -0.018937
     4   Atom       -0.010595      0.003740      0.004556
 --------------------------------------------------------


 ---------------------------------------------------------------------------------
              Anisotropic Spin Dipole Couplings in Principal Axis System
 ---------------------------------------------------------------------------------

       Atom             a.u.   MegaHertz   Gauss  10(-4) cm-1        Axes

              Baa    -0.0579   -30.907   -11.028   -10.310 -0.4097  0.6660 -0.6233
     1 H(1)   Bbb    -0.0363   -19.357    -6.907    -6.457 -0.4878  0.4175  0.7667
              Bcc     0.0942    50.265    17.936    16.766  0.7709  0.6181  0.1538
 
              Baa    -0.5373   -72.106   -25.729   -24.052  0.7137  0.6758  0.1842
     2 C(13)  Bbb    -0.0929   -12.472    -4.450    -4.160 -0.6280  0.7339 -0.2590
              Bcc     0.6303    84.578    30.180    28.212 -0.3102  0.0691  0.9482
 
              Baa    -0.0721   -38.481   -13.731   -12.836  0.0140  0.6477  0.7618
     3 H(1)   Bbb    -0.0367   -19.601    -6.994    -6.538  0.1464  0.7523 -0.6423
              Bcc     0.1089    58.082    20.725    19.374  0.9891 -0.1205  0.0843
 
              Baa    -0.0168    -8.974    -3.202    -2.993 -0.2578 -0.5776  0.7745
     4 H(1)   Bbb    -0.0054    -2.902    -1.035    -0.968  0.2328  0.7409  0.6300
              Bcc     0.0223    11.876     4.238     3.961  0.9377 -0.3427  0.0565
 

 ---------------------------------------------------------------------------------

 PrsmSu:  requested number of processors reduced to:  31 ShMem   1 Linda.
 Calling FoFJK, ICntrl=      2127 FMM=F ISym2X=0 I1Cent= 0 IOpClX= 1 NMat=1 NMatS=1 NMatT=0.
 ***** Axes restored to original set *****
 -------------------------------------------------------------------
 Center     Atomic                   Forces (Hartrees/Bohr)
 Number     Number              X              Y              Z
 -------------------------------------------------------------------
      1        1           0.023206040   -0.031922698   -0.014456864
      2        6          -0.015929085    0.043220744   -0.004600016
      3        1          -0.033051132   -0.003595460    0.012921057
      4        1           0.025774178   -0.007702585    0.006135823
 -------------------------------------------------------------------
 Cartesian Forces:  Max     0.043220744 RMS     0.022254313

 GradGradGradGradGradGradGradGradGradGradGradGradGradGradGradGradGradGrad
 Berny optimization.
 Search for a local minimum.
 Step number   1 out of a maximum of    2
 All quantities printed in internal units (Hartrees-Bohrs-Radians)
 Second derivative matrix not updated -- first step.
 The second derivative matrix:
                          X1        Y1        Z1        X2        Y2
           X1           1.00000
           Y1           0.00000   1.00000
           Z1           0.00000   0.00000   1.00000
           X2           0.00000   0.00000   0.00000   1.00000
           Y2           0.00000   0.00000   0.00000   0.00000   1.00000
           Z2           0.00000   0.00000   0.00000   0.00000   0.00000
           X3           0.00000   0.00000   0.00000   0.00000   0.00000
           Y3           0.00000   0.00000   0.00000   0.00000   0.00000
           Z3           0.00000   0.00000   0.00000   0.00000   0.00000
           X4           0.00000   0.00000   0.00000   0.00000   0.00000
           Y4           0.00000   0.00000   0.00000   0.00000   0.00000
           Z4           0.00000   0.00000   0.00000   0.00000   0.00000
                          Z2        X3        Y3        Z3        X4
           Z2           1.00000
           X3           0.00000   1.00000
           Y3           0.00000   0.00000   1.00000
           Z3           0.00000   0.00000   0.00000   1.00000
           X4           0.00000   0.00000   0.00000   0.00000   1.00000
           Y4           0.00000   0.00000   0.00000   0.00000   0.00000
           Z4           0.00000   0.00000   0.00000   0.00000   0.00000
                          Y4        Z4
           Y4           1.00000
           Z4           0.00000   1.00000
 ITU=  0
     Eigenvalues ---    1.00000   1.00000   1.00000   1.00000   1.00000
     Eigenvalues ---    1.00000   1.00000   1.00000   1.00000   1.00000
     Eigenvalues ---    1.00000   1.00000
 Angle between quadratic step and forces=   0.00 degrees.
 Linear search not attempted -- first point.
 B after Tr=     0.000000    0.000001   -0.000001
         Rot=    1.000000    0.000000    0.000000    0.000000 Ang=   0.00 deg.
 Variable       Old X    -DE/DX   Delta X   Delta X   Delta X     New X
                                 (Linear)    (Quad)   (Total)
    X1       36.50535   0.02321   0.00000   0.02321   0.02321  36.52856
    Y1       22.04914  -0.03192   0.00000  -0.03192  -0.03192  22.01721
    Z1       31.25853  -0.01446   0.00000  -0.01446  -0.01446  31.24407
    X2       38.08535  -0.01593   0.00000  -0.01593  -0.01593  38.06942
    Y2       19.63236   0.04322   0.00000   0.04322   0.04322  19.67559
    Z2       30.74660  -0.00460   0.00000  -0.00460  -0.00460  30.74200
    X3       37.99994  -0.03305   0.00000  -0.03305  -0.03305  37.96688
    Y3       21.95219  -0.00360   0.00000  -0.00360  -0.00360  21.94860
    Z3       28.42299   0.01292   0.00000   0.01292   0.01292  28.43591
    X4       35.52798   0.02577   0.00000   0.02577   0.02577  35.55376
    Y4       23.16426  -0.00770   0.00000  -0.00770  -0.00770  23.15656
    Z4       27.54068   0.00614   0.00000   0.00614   0.00614  27.54682
         Item               Value     Threshold  Converged?
 Maximum Force            0.043221     0.000450     NO 
 RMS     Force            0.022254     0.000300     NO 
 Maximum Displacement     0.043221     0.001800     NO 
 RMS     Displacement     0.022254     0.001200     NO 
 Predicted change in Energy=-2.971527D-03
 GradGradGradGradGradGradGradGradGradGradGradGradGradGradGradGradGradGrad

 1\1\GINC-H08R06\Force\UB3LYP\3-21G*\C1H3(4)\ACKGYDJ0BD\09-Jul-2026\0\\
 #force b3lyp/3-21G* Geom=PrintInputOrient\\Generated by MDDatasetMaker
  (Author: Jinzhe Zeng)\\0,4\H,19.3178,11.6679,16.5413\C,20.1539,10.389
 ,16.2704\H,20.1087,11.6166,15.0408\H,18.8006,12.258,14.5739\\Version=E
 M64L-G16RevB.01\State=4-A\HF=-39.2652811\S2=3.789541\S2-1=0.\S2A=3.750
 089\RMSD=6.247e-09\RMSF=2.225e-02\Dipole=-0.1174123,0.3394637,0.126457
 3\Quadrupole=0.1783191,0.1266507,-0.3049699,-0.3055017,-0.9272219,1.05
 08483\PG=C01 [X(C1H3)]\\@


 UNDER MOST GREENE GRASSE LY MOST GREATE SNAKES.
 -- PROVERBS AND REASONS OF THE YEAR 1585
           AS REPRINTED IN PAISLEY MAGAZINE 1828.
 Job cpu time:       0 days  0 hours  2 minutes 35.0 seconds.
 Elapsed time:       0 days  0 hours  0 minutes  3.2 seconds.
 File lengths (MBytes):  RWF=      6 Int=      0 D2E=      0 Chk=      1 Scr=      1
 Normal termination of Gaussian 16 at Thu Jul  9 10:27:43 2026.
