 Entering Gaussian System, Link 0=g16
 Input=loop1_O11_01.gjf
 Output=loop1_O11_01.log
 Initial command:
 /work/home/ackgydj0bd/apprepo/gaussian/16b.01-none_v1.3/app/g16/l1.exe "/work/home/ackgydj0bd/apprepo/gaussian/16b.01-none_v1.3/app/g16/scratch/Gau-35260.inp" -scrdir="/work/home/ackgydj0bd/apprepo/gaussian/16b.01-none_v1.3/app/g16/scratch/"
 Entering Link 1 = /work/home/ackgydj0bd/apprepo/gaussian/16b.01-none_v1.3/app/g16/l1.exe PID=     35313.
  
 Copyright (c) 1988-2017, Gaussian, Inc.  All Rights Reserved.
  
 This is part of the Gaussian(R) 16 program.  It is based on
 the Gaussian(R) 09 system (copyright 2009, Gaussian, Inc.),
 the Gaussian(R) 03 system (copyright 2003, Gaussian, Inc.),
 the Gaussian(R) 98 system (copyright 1998, Gaussian, Inc.),
 the Gaussian(R) 94 system (copyright 1995, Gaussian, Inc.),
 the Gaussian 92(TM) system (copyright 1992, Gaussian, Inc.),
 the Gaussian 90(TM) system (copyright 1990, Gaussian, Inc.),
 the Gaussian 88(TM) system (copyright 1988, Gaussian, Inc.),
 the Gaussian 86(TM) system (copyright 1986, Carnegie Mellon
 University), and the Gaussian 82(TM) system (copyright 1983,
 Carnegie Mellon University). Gaussian is a federally registered
 trademark of Gaussian, Inc.
  
 This software contains proprietary and confidential information,
 including trade secrets, belonging to Gaussian, Inc.
  
 This software is provided under written license and may be
 used, copied, transmitted, or stored only in accord with that
 written license.
  
 The following legend is applicable only to US Government
 contracts under FAR:
  
                    RESTRICTED RIGHTS LEGEND
  
 Use, reproduction and disclosure by the US Government is
 subject to restrictions as set forth in subparagraphs (a)
 and (c) of the Commercial Computer Software - Restricted
 Rights clause in FAR 52.227-19.
  
 Gaussian, Inc.
 340 Quinnipiac St., Bldg. 40, Wallingford CT 06492
  
  
 ---------------------------------------------------------------
 Warning -- This program may not be used in any manner that
 competes with the business of Gaussian, Inc. or will provide
 assistance to any competitor of Gaussian, Inc.  The licensee
 of this program is prohibited from giving any competitor of
 Gaussian, Inc. access to this program.  By using this program,
 the user acknowledges that Gaussian, Inc. is engaged in the
 business of creating and licensing software in the field of
 computational chemistry and represents and warrants to the
 licensee that it is not a competitor of Gaussian, Inc. and that
 it will not use this program in any manner prohibited above.
 ---------------------------------------------------------------
  

 Cite this work as:
 Gaussian 16, Revision B.01,
 M. J. Frisch, G. W. Trucks, H. B. Schlegel, G. E. Scuseria, 
 M. A. Robb, J. R. Cheeseman, G. Scalmani, V. Barone, 
 G. A. Petersson, H. Nakatsuji, X. Li, M. Caricato, A. V. Marenich, 
 J. Bloino, B. G. Janesko, R. Gomperts, B. Mennucci, H. P. Hratchian, 
 J. V. Ortiz, A. F. Izmaylov, J. L. Sonnenberg, D. Williams-Young, 
 F. Ding, F. Lipparini, F. Egidi, J. Goings, B. Peng, A. Petrone, 
 T. Henderson, D. Ranasinghe, V. G. Zakrzewski, J. Gao, N. Rega, 
 G. Zheng, W. Liang, M. Hada, M. Ehara, K. Toyota, R. Fukuda, 
 J. Hasegawa, M. Ishida, T. Nakajima, Y. Honda, O. Kitao, H. Nakai, 
 T. Vreven, K. Throssell, J. A. Montgomery, Jr., J. E. Peralta, 
 F. Ogliaro, M. J. Bearpark, J. J. Heyd, E. N. Brothers, K. N. Kudin, 
 V. N. Staroverov, T. A. Keith, R. Kobayashi, J. Normand, 
 K. Raghavachari, A. P. Rendell, J. C. Burant, S. S. Iyengar, 
 J. Tomasi, M. Cossi, J. M. Millam, M. Klene, C. Adamo, R. Cammi, 
 J. W. Ochterski, R. L. Martin, K. Morokuma, O. Farkas, 
 J. B. Foresman, and D. J. Fox, Gaussian, Inc., Wallingford CT, 2016.
 
 ******************************************
 Gaussian 16:  EM64L-G16RevB.01 20-Dec-2017
                 9-Jul-2026 
 ******************************************
 %nproc=64
 Will use up to   64 processors via shared memory.
 -----------------------------------------
 #force b3lyp/3-21G* Geom=PrintInputOrient
 -----------------------------------------
 1/10=7,30=1,38=1/1,3;
 2/9=2000,12=2,17=6,18=5,40=1/2;
 3/5=5,7=1,11=2,25=1,30=1,71=1,74=-5/1,2,3;
 4//1;
 5/5=2,38=5/2;
 6/7=2,8=2,9=2,10=2,28=1/1;
 7/29=1/1,2,3,16;
 1/10=7,30=1/3;
 99//99;
 -------------------------------------------------
 Generated by MDDatasetMaker (Author: Jinzhe Zeng)
 -------------------------------------------------
 Symbolic Z-matrix:
 Charge =  0 Multiplicity = 2
 H                     13.9131   13.0868   4.16585 
 H                     13.0096   14.1488   5.03832 
 O                     14.1475   14.6862   4.78204 
 H                     14.3319   15.0869   3.94104 
 

 GradGradGradGradGradGradGradGradGradGradGradGradGradGradGradGradGradGrad
 Berny optimization.
 Initialization pass.
 Trust Radius=3.00D-01 FncErr=1.00D-07 GrdErr=1.00D-07 EigMax=2.50D+02 EigMin=1.00D-04
 Number of steps in this run=      2 maximum allowed number of steps=      2.
 GradGradGradGradGradGradGradGradGradGradGradGradGradGradGradGradGradGrad

                          Input orientation:                          
 ---------------------------------------------------------------------
 Center     Atomic      Atomic             Coordinates (Angstroms)
 Number     Number       Type             X           Y           Z
 ---------------------------------------------------------------------
      1          1           0       13.913100   13.086800    4.165850
      2          1           0       13.009600   14.148800    5.038320
      3          8           0       14.147500   14.686200    4.782040
      4          1           0       14.331900   15.086900    3.941040
 ---------------------------------------------------------------------
                    Distance matrix (angstroms):
                    1          2          3          4
     1  H    0.000000
     2  H    1.644798   0.000000
     3  O    1.729946   1.284249   0.000000
     4  H    2.055805   1.957685   0.949655   0.000000
 Stoichiometry    H3O(2)
 Framework group  C1[X(H3O)]
 Deg. of freedom     6
 Full point group                 C1      NOp   1
 Largest Abelian subgroup         C1      NOp   1
 Largest concise Abelian subgroup C1      NOp   1
                         Standard orientation:                         
 ---------------------------------------------------------------------
 Center     Atomic      Atomic             Coordinates (Angstroms)
 Number     Number       Type             X           Y           Z
 ---------------------------------------------------------------------
      1          1           0        1.392829   -0.636265   -0.079811
      2          1           0        0.746561    0.819345    0.331158
      3          8           0       -0.193894    0.052880   -0.089997
      4          1           0       -0.588241   -0.606116    0.468626
 ---------------------------------------------------------------------
 Rotational constants (GHZ):         262.1466980         133.5424560         104.5142778
 Standard basis: 3-21G* (6D, 7F)
 There are    15 symmetry adapted cartesian basis functions of A   symmetry.
 There are    15 symmetry adapted basis functions of A   symmetry.
    15 basis functions,    24 primitive gaussians,    15 cartesian basis functions
     6 alpha electrons        5 beta electrons
       nuclear repulsion energy        11.0508434734 Hartrees.
 NAtoms=    4 NActive=    4 NUniq=    4 SFac= 1.00D+00 NAtFMM=   60 NAOKFM=F Big=F
 Integral buffers will be    131072 words long.
 Raffenetti 2 integral format.
 Two-electron integral symmetry is turned on.
 One-electron integrals computed using PRISM.
 PrsmSu:  requested number of processors reduced to:  31 ShMem   1 Linda.
 NBasis=    15 RedAO= T EigKep=  1.23D-01  NBF=    15
 NBsUse=    15 1.00D-06 EigRej= -1.00D+00 NBFU=    15
 ExpMin= 1.83D-01 ExpMax= 3.22D+02 ExpMxC= 3.22D+02 IAcc=3 IRadAn=         5 AccDes= 0.00D+00
 Harris functional with IExCor=  402 and IRadAn=       5 diagonalized for initial guess.
 HarFok:  IExCor=  402 AccDes= 0.00D+00 IRadAn=         5 IDoV= 1 UseB2=F ITyADJ=14
 ICtDFT=  3500011 ScaDFX=  1.000000  1.000000  1.000000  1.000000
 FoFCou: FMM=F IPFlag=           0 FMFlag=      100000 FMFlg1=           0
         NFxFlg=           0 DoJE=T BraDBF=F KetDBF=T FulRan=T
         wScrn=  0.000000 ICntrl=       500 IOpCl=  0 I1Cent=   200000004 NGrid=           0
         NMat0=    1 NMatS0=      1 NMatT0=    0 NMatD0=    1 NMtDS0=    0 NMtDT0=    0
 Petite list used in FoFCou.
 Initial guess <Sx>= 0.0000 <Sy>= 0.0000 <Sz>= 0.5000 <S**2>= 0.7500 S= 0.5000
 Keep R1 and R2 ints in memory in canonical form, NReq=55229864.
 Requested convergence on RMS density matrix=1.00D-08 within 128 cycles.
 Requested convergence on MAX density matrix=1.00D-06.
 Requested convergence on             energy=1.00D-06.
 No special actions if energy rises.
 Integral accuracy reduced to 1.0D-05 until final iterations.
 Initial convergence to 1.0D-05 achieved.  Increase integral accuracy.
 SCF Done:  E(UB3LYP) =  -76.4231003428     A.U. after   15 cycles
            NFock= 15  Conv=0.53D-08     -V/T= 2.0087
 <Sx>= 0.0000 <Sy>= 0.0000 <Sz>= 0.5000 <S**2>= 0.7623 S= 0.5062
 <L.S>= 0.000000000000E+00
 Annihilation of the first spin contaminant:
 S**2 before annihilation     0.7623,   after     0.7500

 **********************************************************************

            Population analysis using the SCF Density.

 **********************************************************************

 Orbital symmetries:
 Alpha Orbitals:
       Occupied  (A) (A) (A) (A) (A) (A)
       Virtual   (A) (A) (A) (A) (A) (A) (A) (A) (A)
 Beta  Orbitals:
       Occupied  (A) (A) (A) (A) (A)
       Virtual   (A) (A) (A) (A) (A) (A) (A) (A) (A) (A)
 The electronic state is 2-A.
 Alpha  occ. eigenvalues --  -19.05047  -0.98670  -0.51191  -0.35753  -0.32241
 Alpha  occ. eigenvalues --   -0.18734
 Alpha virt. eigenvalues --   -0.00715   0.14425   0.85937   0.92787   0.98225
 Alpha virt. eigenvalues --    1.45618   1.47152   1.65803   2.60257
  Beta  occ. eigenvalues --  -19.04118  -0.96543  -0.50011  -0.32272  -0.29644
  Beta virt. eigenvalues --   -0.03349   0.01985   0.14914   0.85688   0.96285
  Beta virt. eigenvalues --    1.06324   1.46288   1.49894   1.67163   2.62009
          Condensed to atoms (all electrons):
               1          2          3          4
     1  H    1.116476   0.045507  -0.046866   0.014892
     2  H    0.045507   0.519400   0.170421  -0.012048
     3  O   -0.046866   0.170421   8.171272   0.213468
     4  H    0.014892  -0.012048   0.213468   0.422105
          Atomic-Atomic Spin Densities.
               1          2          3          4
     1  H    0.849793   0.029426  -0.158548   0.015219
     2  H    0.029426  -0.018814  -0.029887   0.003015
     3  O   -0.158548  -0.029887   0.482144  -0.015989
     4  H    0.015219   0.003015  -0.015989   0.000407
 Mulliken charges and spin densities:
               1          2
     1  H   -0.130009   0.735890
     2  H    0.276720  -0.016261
     3  O   -0.508295   0.277720
     4  H    0.361583   0.002651
 Sum of Mulliken charges =   0.00000   1.00000
 Mulliken charges and spin densities with hydrogens summed into heavy atoms:
               1          2
     3  O    0.000000   1.000000
 Electronic spatial extent (au):  <R**2>=             34.3082
 Charge=              0.0000 electrons
 Dipole moment (field-independent basis, Debye):
    X=             -0.3647    Y=              0.3116    Z=              1.8355  Tot=              1.8971
 Quadrupole moment (field-independent basis, Debye-Ang):
   XX=             -7.9457   YY=             -6.4913   ZZ=             -7.6425
   XY=              2.5294   XZ=             -0.1394   YZ=             -0.1406
 Traceless Quadrupole moment (field-independent basis, Debye-Ang):
   XX=             -0.5858   YY=              0.8685   ZZ=             -0.2827
   XY=              2.5294   XZ=             -0.1394   YZ=             -0.1406
 Octapole moment (field-independent basis, Debye-Ang**2):
  XXX=             -5.4683  YYY=              1.6674  ZZZ=              0.6894  XYY=             -1.1240
  XXY=              1.4171  XXZ=              0.8274  XZZ=             -1.3431  YZZ=              0.2398
  YYZ=              0.8191  XYZ=              0.5768
 Hexadecapole moment (field-independent basis, Debye-Ang**3):
 XXXX=            -29.0036 YYYY=            -11.9085 ZZZZ=             -6.9822 XXXY=              4.3702
 XXXZ=              0.2201 YYYX=              3.7132 YYYZ=             -0.2354 ZZZX=             -0.0403
 ZZZY=             -0.4250 XXYY=             -6.1556 XXZZ=             -5.4624 YYZZ=             -3.0238
 XXYZ=             -0.0423 YYXZ=              0.1612 ZZXY=              1.1052
 N-N= 1.105084347344D+01 E-N=-2.026166268959D+02  KE= 7.576144830407D+01
                          Isotropic Fermi Contact Couplings
        Atom                 a.u.       MegaHertz       Gauss      10(-4) cm-1
     1  H(1)               0.19208     858.59248     306.36715     286.39562
     2  H(1)              -0.01316     -58.81727     -20.98747     -19.61933
     3  O(17)              0.22443    -136.04988     -48.54598     -45.38135
     4  H(1)              -0.00381     -17.02535      -6.07507      -5.67904
 --------------------------------------------------------
       Center         ----  Spin Dipole Couplings  ----
                      3XX-RR        3YY-RR        3ZZ-RR
 --------------------------------------------------------
     1   Atom       -0.011467      0.004216      0.007251
     2   Atom        0.004641      0.028426     -0.033067
     3   Atom        1.077037     -0.520858     -0.556180
     4   Atom        0.019736     -0.006139     -0.013597
 --------------------------------------------------------
                        XY            XZ            YZ
 --------------------------------------------------------
     1   Atom        0.009116     -0.000575      0.000438
     2   Atom        0.006465      0.008962      0.024451
     3   Atom       -0.490102      0.343312     -0.162875
     4   Atom        0.027388     -0.031581     -0.042199
 --------------------------------------------------------


 ---------------------------------------------------------------------------------
              Anisotropic Spin Dipole Couplings in Principal Axis System
 ---------------------------------------------------------------------------------

       Atom             a.u.   MegaHertz   Gauss  10(-4) cm-1        Axes

              Baa    -0.0157    -8.362    -2.984    -2.789  0.9084 -0.4170  0.0308
     1 H(1)   Bbb     0.0073     3.869     1.380     1.290 -0.0848 -0.1116  0.9901
              Bcc     0.0084     4.493     1.603     1.499  0.4095  0.9020  0.1368
 
              Baa    -0.0425   -22.662    -8.086    -7.559 -0.1361 -0.3119  0.9403
     2 H(1)   Bbb     0.0031     1.661     0.593     0.554  0.9571 -0.2865  0.0435
              Bcc     0.0394    21.001     7.494     7.005  0.2558  0.9059  0.3375
 
              Baa    -0.7094    51.331    18.316    17.122  0.0962  0.7820  0.6157
     3 O(17)  Bbb    -0.5820    42.116    15.028    14.048 -0.3233 -0.5605  0.7624
              Bcc     1.2914   -93.447   -33.344   -31.171  0.9414 -0.2725  0.1989
 
              Baa    -0.0527   -28.104   -10.028    -9.375  0.0915  0.6388  0.7639
     4 H(1)   Bbb    -0.0155    -8.290    -2.958    -2.765  0.7528 -0.5465  0.3669
              Bcc     0.0682    36.394    12.986    12.140  0.6518  0.5415 -0.5309
 

 ---------------------------------------------------------------------------------

 PrsmSu:  requested number of processors reduced to:  31 ShMem   1 Linda.
 Calling FoFJK, ICntrl=      2127 FMM=F ISym2X=0 I1Cent= 0 IOpClX= 1 NMat=1 NMatS=1 NMatT=0.
 ***** Axes restored to original set *****
 -------------------------------------------------------------------
 Center     Atomic                   Forces (Hartrees/Bohr)
 Number     Number              X              Y              Z
 -------------------------------------------------------------------
      1        1          -0.002128664   -0.009410830   -0.001089877
      2        1           0.079723270    0.046349160   -0.042043314
      3        8          -0.057752222   -0.053994604    0.095552309
      4        1          -0.019842385    0.017056274   -0.052419118
 -------------------------------------------------------------------
 Cartesian Forces:  Max     0.095552309 RMS     0.049311382

 GradGradGradGradGradGradGradGradGradGradGradGradGradGradGradGradGradGrad
 Berny optimization.
 Search for a local minimum.
 Step number   1 out of a maximum of    2
 All quantities printed in internal units (Hartrees-Bohrs-Radians)
 Second derivative matrix not updated -- first step.
 The second derivative matrix:
                          X1        Y1        Z1        X2        Y2
           X1           1.00000
           Y1           0.00000   1.00000
           Z1           0.00000   0.00000   1.00000
           X2           0.00000   0.00000   0.00000   1.00000
           Y2           0.00000   0.00000   0.00000   0.00000   1.00000
           Z2           0.00000   0.00000   0.00000   0.00000   0.00000
           X3           0.00000   0.00000   0.00000   0.00000   0.00000
           Y3           0.00000   0.00000   0.00000   0.00000   0.00000
           Z3           0.00000   0.00000   0.00000   0.00000   0.00000
           X4           0.00000   0.00000   0.00000   0.00000   0.00000
           Y4           0.00000   0.00000   0.00000   0.00000   0.00000
           Z4           0.00000   0.00000   0.00000   0.00000   0.00000
                          Z2        X3        Y3        Z3        X4
           Z2           1.00000
           X3           0.00000   0.02178
           Y3           0.00000   0.04732   0.10283
           Z3           0.00000  -0.09932  -0.21583   0.45298
           X4           0.00000  -0.02178  -0.04732   0.09932   0.02178
           Y4           0.00000  -0.04732  -0.10283   0.21583   0.04732
           Z4           0.00000   0.09932   0.21583  -0.45298  -0.09932
                          Y4        Z4
           Y4           0.10283
           Z4          -0.21583   0.45298
 ITU=  0
     Eigenvalues ---    0.16310   0.37813   0.78581   0.91848   1.00000
     Eigenvalues ---    1.01367
 Angle between quadratic step and forces=  37.58 degrees.
 Linear search not attempted -- first point.
 B after Tr=     0.033957    0.119723   -0.470347
         Rot=    0.999977   -0.004607    0.004848    0.000861 Ang=  -0.77 deg.
 Variable       Old X    -DE/DX   Delta X   Delta X   Delta X     New X
                                 (Linear)    (Quad)   (Total)
    X1       26.29195  -0.00213   0.00000   0.00632   0.00437  26.29632
    Y1       24.73047  -0.00941   0.00000   0.00533   0.00527  24.73574
    Z1        7.87232  -0.00109   0.00000  -0.02582  -0.01402   7.85829
    X2       24.58458   0.07972   0.00000   0.08586   0.07194  24.65652
    Y2       26.73736   0.04635   0.00000   0.06595   0.05396  26.79131
    Z2        9.52104  -0.04204   0.00000  -0.07508  -0.06013   9.46091
    X3       26.73490  -0.05775   0.00000  -0.00874  -0.01787  26.71703
    Y3       27.75290  -0.05399   0.00000  -0.01180  -0.02432  27.72858
    Z3        9.03675   0.09555   0.00000   0.06757   0.11111   9.14786
    X4       27.08337  -0.01984   0.00000  -0.06747  -0.05844  27.02492
    Y4       28.51011   0.01706   0.00000  -0.03792  -0.03491  28.47520
    Z4        7.44749  -0.05242   0.00000  -0.09021  -0.03696   7.41053
         Item               Value     Threshold  Converged?
 Maximum Force            0.095552     0.000450     NO 
 RMS     Force            0.049311     0.000300     NO 
 Maximum Displacement     0.111114     0.001800     NO 
 RMS     Displacement     0.050993     0.001200     NO 
 Predicted change in Energy=-1.613673D-02
 GradGradGradGradGradGradGradGradGradGradGradGradGradGradGradGradGradGrad

 1\1\GINC-H08R06\Force\UB3LYP\3-21G*\H3O1(2)\ACKGYDJ0BD\09-Jul-2026\0\\
 #force b3lyp/3-21G* Geom=PrintInputOrient\\Generated by MDDatasetMaker
  (Author: Jinzhe Zeng)\\0,2\H,13.9131,13.0868,4.16585\H,13.0096,14.148
 8,5.03832\O,14.1475,14.6862,4.78204\H,14.3319,15.0869,3.94104\\Version
 =EM64L-G16RevB.01\State=2-A\HF=-76.4231003\S2=0.762339\S2-1=0.\S2A=0.7
 50005\RMSD=5.258e-09\RMSF=4.931e-02\Dipole=-0.5061982,0.4066012,-0.368
 1462\Quadrupole=0.8652984,-1.0861015,0.2208032,0.6562139,-0.9401217,-1
 .2572306\PG=C01 [X(H3O1)]\\@


 A FOOL CAN ASK MORE QUESTIONS THAN
 A WISE MAN CAN ANSWER.
 Job cpu time:       0 days  0 hours  2 minutes 25.5 seconds.
 Elapsed time:       0 days  0 hours  0 minutes  3.0 seconds.
 File lengths (MBytes):  RWF=      6 Int=      0 D2E=      0 Chk=      1 Scr=      1
 Normal termination of Gaussian 16 at Thu Jul  9 10:30:04 2026.
