 Entering Gaussian System, Link 0=g16
 Input=loop1_C1111_04.gjf
 Output=loop1_C1111_04.log
 Initial command:
 /work/home/ackgydj0bd/apprepo/gaussian/16b.01-none_v1.3/app/g16/l1.exe "/work/home/ackgydj0bd/apprepo/gaussian/16b.01-none_v1.3/app/g16/scratch/Gau-247396.inp" -scrdir="/work/home/ackgydj0bd/apprepo/gaussian/16b.01-none_v1.3/app/g16/scratch/"
 Entering Link 1 = /work/home/ackgydj0bd/apprepo/gaussian/16b.01-none_v1.3/app/g16/l1.exe PID=    247397.
  
 Copyright (c) 1988-2017, Gaussian, Inc.  All Rights Reserved.
  
 This is part of the Gaussian(R) 16 program.  It is based on
 the Gaussian(R) 09 system (copyright 2009, Gaussian, Inc.),
 the Gaussian(R) 03 system (copyright 2003, Gaussian, Inc.),
 the Gaussian(R) 98 system (copyright 1998, Gaussian, Inc.),
 the Gaussian(R) 94 system (copyright 1995, Gaussian, Inc.),
 the Gaussian 92(TM) system (copyright 1992, Gaussian, Inc.),
 the Gaussian 90(TM) system (copyright 1990, Gaussian, Inc.),
 the Gaussian 88(TM) system (copyright 1988, Gaussian, Inc.),
 the Gaussian 86(TM) system (copyright 1986, Carnegie Mellon
 University), and the Gaussian 82(TM) system (copyright 1983,
 Carnegie Mellon University). Gaussian is a federally registered
 trademark of Gaussian, Inc.
  
 This software contains proprietary and confidential information,
 including trade secrets, belonging to Gaussian, Inc.
  
 This software is provided under written license and may be
 used, copied, transmitted, or stored only in accord with that
 written license.
  
 The following legend is applicable only to US Government
 contracts under FAR:
  
                    RESTRICTED RIGHTS LEGEND
  
 Use, reproduction and disclosure by the US Government is
 subject to restrictions as set forth in subparagraphs (a)
 and (c) of the Commercial Computer Software - Restricted
 Rights clause in FAR 52.227-19.
  
 Gaussian, Inc.
 340 Quinnipiac St., Bldg. 40, Wallingford CT 06492
  
  
 ---------------------------------------------------------------
 Warning -- This program may not be used in any manner that
 competes with the business of Gaussian, Inc. or will provide
 assistance to any competitor of Gaussian, Inc.  The licensee
 of this program is prohibited from giving any competitor of
 Gaussian, Inc. access to this program.  By using this program,
 the user acknowledges that Gaussian, Inc. is engaged in the
 business of creating and licensing software in the field of
 computational chemistry and represents and warrants to the
 licensee that it is not a competitor of Gaussian, Inc. and that
 it will not use this program in any manner prohibited above.
 ---------------------------------------------------------------
  

 Cite this work as:
 Gaussian 16, Revision B.01,
 M. J. Frisch, G. W. Trucks, H. B. Schlegel, G. E. Scuseria, 
 M. A. Robb, J. R. Cheeseman, G. Scalmani, V. Barone, 
 G. A. Petersson, H. Nakatsuji, X. Li, M. Caricato, A. V. Marenich, 
 J. Bloino, B. G. Janesko, R. Gomperts, B. Mennucci, H. P. Hratchian, 
 J. V. Ortiz, A. F. Izmaylov, J. L. Sonnenberg, D. Williams-Young, 
 F. Ding, F. Lipparini, F. Egidi, J. Goings, B. Peng, A. Petrone, 
 T. Henderson, D. Ranasinghe, V. G. Zakrzewski, J. Gao, N. Rega, 
 G. Zheng, W. Liang, M. Hada, M. Ehara, K. Toyota, R. Fukuda, 
 J. Hasegawa, M. Ishida, T. Nakajima, Y. Honda, O. Kitao, H. Nakai, 
 T. Vreven, K. Throssell, J. A. Montgomery, Jr., J. E. Peralta, 
 F. Ogliaro, M. J. Bearpark, J. J. Heyd, E. N. Brothers, K. N. Kudin, 
 V. N. Staroverov, T. A. Keith, R. Kobayashi, J. Normand, 
 K. Raghavachari, A. P. Rendell, J. C. Burant, S. S. Iyengar, 
 J. Tomasi, M. Cossi, J. M. Millam, M. Klene, C. Adamo, R. Cammi, 
 J. W. Ochterski, R. L. Martin, K. Morokuma, O. Farkas, 
 J. B. Foresman, and D. J. Fox, Gaussian, Inc., Wallingford CT, 2016.
 
 ******************************************
 Gaussian 16:  EM64L-G16RevB.01 20-Dec-2017
                 9-Jul-2026 
 ******************************************
 %nproc=64
 Will use up to   64 processors via shared memory.
 -----------------------------------------
 #force b3lyp/3-21G* Geom=PrintInputOrient
 -----------------------------------------
 1/10=7,30=1,38=1/1,3;
 2/9=2000,12=2,17=6,18=5,40=1/2;
 3/5=5,7=1,11=2,25=1,30=1,71=1,74=-5/1,2,3;
 4//1;
 5/5=2,38=5/2;
 6/7=2,8=2,9=2,10=2,28=1/1;
 7/29=1/1,2,3,16;
 1/10=7,30=1/3;
 99//99;
 -------------------------------------------------
 Generated by MDDatasetMaker (Author: Jinzhe Zeng)
 -------------------------------------------------
 Symbolic Z-matrix:
 Charge =  0 Multiplicity = 1
 C                     11.795    15.56     9.733 
 H                     12.245    15.742    10.687 
 H                     11.391    14.569    9.713 
 H                     11.01     16.269    9.568 
 H                     12.533    15.66     8.965 
 

 GradGradGradGradGradGradGradGradGradGradGradGradGradGradGradGradGradGrad
 Berny optimization.
 Initialization pass.
 Trust Radius=3.00D-01 FncErr=1.00D-07 GrdErr=1.00D-07 EigMax=2.50D+02 EigMin=1.00D-04
 Number of steps in this run=      2 maximum allowed number of steps=      2.
 GradGradGradGradGradGradGradGradGradGradGradGradGradGradGradGradGradGrad

                          Input orientation:                          
 ---------------------------------------------------------------------
 Center     Atomic      Atomic             Coordinates (Angstroms)
 Number     Number       Type             X           Y           Z
 ---------------------------------------------------------------------
      1          6           0       11.795000   15.560000    9.733000
      2          1           0       12.245000   15.742000   10.687000
      3          1           0       11.391000   14.569000    9.713000
      4          1           0       11.010000   16.269000    9.568000
      5          1           0       12.533000   15.660000    8.965000
 ---------------------------------------------------------------------
                    Distance matrix (angstroms):
                    1          2          3          4          5
     1  C    0.000000
     2  H    1.070392   0.000000
     3  H    1.070372   1.747547   0.000000
     4  H    1.070575   1.747889   1.748195   0.000000
     5  H    1.069798   1.747842   1.747555   1.747575   0.000000
 Stoichiometry    CH4
 Framework group  C1[X(CH4)]
 Deg. of freedom     9
 Full point group                 C1      NOp   1
 Largest Abelian subgroup         C1      NOp   1
 Largest concise Abelian subgroup C1      NOp   1
                         Standard orientation:                         
 ---------------------------------------------------------------------
 Center     Atomic      Atomic             Coordinates (Angstroms)
 Number     Number       Type             X           Y           Z
 ---------------------------------------------------------------------
      1          6           0       -0.000018    0.000103    0.000095
      2          1           0        0.421002   -0.859441    0.479331
      3          1           0        0.704503    0.398056   -0.700605
      4          1           0       -0.895429   -0.281543   -0.514731
      5          1           0       -0.229968    0.742309    0.735433
 ---------------------------------------------------------------------
 Rotational constants (GHZ):         164.2074173         164.1607263         164.1090362
 Standard basis: 3-21G* (6D, 7F)
 There are    17 symmetry adapted cartesian basis functions of A   symmetry.
 There are    17 symmetry adapted basis functions of A   symmetry.
    17 basis functions,    27 primitive gaussians,    17 cartesian basis functions
     5 alpha electrons        5 beta electrons
       nuclear repulsion energy        13.6828808534 Hartrees.
 NAtoms=    5 NActive=    5 NUniq=    5 SFac= 1.00D+00 NAtFMM=   60 NAOKFM=F Big=F
 Integral buffers will be    131072 words long.
 Raffenetti 2 integral format.
 Two-electron integral symmetry is turned on.
 One-electron integrals computed using PRISM.
 PrsmSu:  requested number of processors reduced to:  31 ShMem   1 Linda.
 NBasis=    17 RedAO= T EigKep=  3.16D-02  NBF=    17
 NBsUse=    17 1.00D-06 EigRej= -1.00D+00 NBFU=    17
 ExpMin= 1.83D-01 ExpMax= 1.72D+02 ExpMxC= 1.72D+02 IAcc=3 IRadAn=         5 AccDes= 0.00D+00
 Harris functional with IExCor=  402 and IRadAn=       5 diagonalized for initial guess.
 HarFok:  IExCor=  402 AccDes= 0.00D+00 IRadAn=         5 IDoV= 1 UseB2=F ITyADJ=14
 ICtDFT=  3500011 ScaDFX=  1.000000  1.000000  1.000000  1.000000
 FoFCou: FMM=F IPFlag=           0 FMFlag=      100000 FMFlg1=           0
         NFxFlg=           0 DoJE=T BraDBF=F KetDBF=T FulRan=T
         wScrn=  0.000000 ICntrl=       500 IOpCl=  0 I1Cent=   200000004 NGrid=           0
         NMat0=    1 NMatS0=      1 NMatT0=    0 NMatD0=    1 NMtDS0=    0 NMtDT0=    0
 Petite list used in FoFCou.
 Keep R1 ints in memory in canonical form, NReq=55236554.
 Requested convergence on RMS density matrix=1.00D-08 within 128 cycles.
 Requested convergence on MAX density matrix=1.00D-06.
 Requested convergence on             energy=1.00D-06.
 No special actions if energy rises.
 Integral accuracy reduced to 1.0D-05 until final iterations.
 Initial convergence to 1.0D-05 achieved.  Increase integral accuracy.
 SCF Done:  E(RB3LYP) =  -40.3001963817     A.U. after    8 cycles
            NFock=  8  Conv=0.77D-08     -V/T= 2.0076

 **********************************************************************

            Population analysis using the SCF Density.

 **********************************************************************

 Orbital symmetries:
       Occupied  (A) (A) (A) (A) (A)
       Virtual   (A) (A) (A) (A) (A) (A) (A) (A) (A) (A) (A) (A)
 The electronic state is 1-A.
 Alpha  occ. eigenvalues --  -10.09026  -0.69698  -0.39299  -0.39283  -0.39274
 Alpha virt. eigenvalues --    0.15262   0.20180   0.20185   0.20203   0.69610
 Alpha virt. eigenvalues --    0.69626   0.69639   1.05706   1.07452   1.07460
 Alpha virt. eigenvalues --    1.07503   1.70655
          Condensed to atoms (all electrons):
               1          2          3          4          5
     1  C    5.301553   0.370425   0.370429   0.370422   0.370493
     2  H    0.370425   0.514026  -0.026780  -0.026749  -0.026719
     3  H    0.370429  -0.026780   0.514012  -0.026710  -0.026754
     4  H    0.370422  -0.026749  -0.026710   0.514058  -0.026763
     5  H    0.370493  -0.026719  -0.026754  -0.026763   0.513764
 Mulliken charges:
               1
     1  C   -0.783322
     2  H    0.195798
     3  H    0.195804
     4  H    0.195741
     5  H    0.195979
 Sum of Mulliken charges =   0.00000
 Mulliken charges with hydrogens summed into heavy atoms:
               1
     1  C    0.000000
 Electronic spatial extent (au):  <R**2>=             34.6405
 Charge=              0.0000 electrons
 Dipole moment (field-independent basis, Debye):
    X=              0.0001    Y=              0.0000    Z=              0.0001  Tot=              0.0002
 Quadrupole moment (field-independent basis, Debye-Ang):
   XX=             -8.1939   YY=             -8.1943   ZZ=             -8.1959
   XY=             -0.0003   XZ=             -0.0005   YZ=              0.0007
 Traceless Quadrupole moment (field-independent basis, Debye-Ang):
   XX=              0.0008   YY=              0.0004   ZZ=             -0.0012
   XY=             -0.0003   XZ=             -0.0005   YZ=              0.0007
 Octapole moment (field-independent basis, Debye-Ang**2):
  XXX=             -0.2213  YYY=             -0.1329  ZZZ=              0.0213  XYY=              0.1630
  XXY=             -0.1021  XXZ=             -0.4610  XZZ=              0.0586  YZZ=              0.2359
  YYZ=              0.4408  XYZ=             -0.4532
 Hexadecapole moment (field-independent basis, Debye-Ang**3):
 XXXX=            -14.3878 YYYY=            -14.4276 ZZZZ=            -14.6663 XXXY=              0.2872
 XXXZ=              0.1616 YYYX=             -0.3194 YYYZ=             -0.0374 ZZZX=             -0.1783
 ZZZY=              0.1110 XXYY=             -4.8009 XXZZ=             -4.5610 YYZZ=             -4.5160
 XXYZ=             -0.0707 YYXZ=              0.0150 ZZXY=              0.0309
 N-N= 1.368288085345D+01 E-N=-1.200046437527D+02  KE= 3.999761654491D+01
 PrsmSu:  requested number of processors reduced to:  31 ShMem   1 Linda.
 Calling FoFJK, ICntrl=      2127 FMM=F ISym2X=0 I1Cent= 0 IOpClX= 0 NMat=1 NMatS=1 NMatT=0.
 ***** Axes restored to original set *****
 -------------------------------------------------------------------
 Center     Atomic                   Forces (Hartrees/Bohr)
 Number     Number              X              Y              Z
 -------------------------------------------------------------------
      1        6          -0.000408545    0.000051142    0.000325132
      2        1           0.006935065    0.002815329    0.014561215
      3        1          -0.006215521   -0.015157056   -0.000350286
      4        1          -0.011925054    0.010724205   -0.002509432
      5        1           0.011614053    0.001566379   -0.012026630
 -------------------------------------------------------------------
 Cartesian Forces:  Max     0.015157056 RMS     0.008494349

 GradGradGradGradGradGradGradGradGradGradGradGradGradGradGradGradGradGrad
 Berny optimization.
 Search for a local minimum.
 Step number   1 out of a maximum of    2
 All quantities printed in internal units (Hartrees-Bohrs-Radians)
 Second derivative matrix not updated -- first step.
 The second derivative matrix:
                          X1        Y1        Z1        X2        Y2
           X1           0.70766
           Y1           0.00010   0.70752
           Z1          -0.00057  -0.00013   0.70810
           X2          -0.13112  -0.02091  -0.10954   0.11438
           Y2          -0.02091  -0.08784  -0.04430   0.02236   0.06814
           Z2          -0.10954  -0.04431  -0.31168   0.11716   0.04739
           X3          -0.12107  -0.10218  -0.00203  -0.00275  -0.01145
           Y3          -0.10218  -0.33007  -0.00507   0.00131   0.00535
           Z3          -0.00203  -0.00507  -0.07953  -0.00942  -0.03391
           X4          -0.23649   0.14189  -0.03299  -0.00442   0.00578
           Y4           0.14189  -0.20753   0.02985  -0.01004   0.01257
           Z4          -0.03299   0.02984  -0.08635  -0.02212   0.02654
           X5          -0.21897  -0.01890   0.14513   0.02391   0.00423
           Y5          -0.01889  -0.08208   0.01966   0.00729   0.00177
           Z5           0.14512   0.01967  -0.23054   0.02392   0.00429
                          Z2        X3        Y3        Z3        X4
           Z2           0.30750
           X3           0.00348   0.10366
           Y3          -0.00164   0.10928   0.32717
           Z3           0.01091   0.00219   0.00542   0.05923
           X4           0.00098   0.02361  -0.00971   0.00433   0.22710
           Y4           0.00234   0.02674  -0.01100   0.00501  -0.15175
           Z4           0.00537   0.00259  -0.00107   0.00094   0.03530
           X5          -0.01208  -0.00345   0.00131   0.00492  -0.00980
           Y5          -0.00378  -0.02240   0.00855   0.02854   0.01380
           Z5          -0.01210  -0.00623   0.00237   0.00845  -0.00762
                          Y4        Z4        X5        Y5        Z5
           Y4           0.19613
           Z4          -0.03191   0.06653
           X5          -0.00684   0.01723   0.20831
           Y5           0.00983  -0.02340   0.02020   0.06193
           Z5          -0.00529   0.01351  -0.15520  -0.02103   0.22068
 ITU=  0
     Eigenvalues ---    0.11732   0.11736   0.14140   0.14142   0.14147
     Eigenvalues ---    0.37194   0.86838   0.86864   0.87002
 Angle between quadratic step and forces=   0.87 degrees.
 Linear search not attempted -- first point.
 B after Tr=    -0.000059   -0.000001    0.000061
         Rot=    1.000000    0.000000    0.000000    0.000000 Ang=   0.00 deg.
 Variable       Old X    -DE/DX   Delta X   Delta X   Delta X     New X
                                 (Linear)    (Quad)   (Total)
    X1       22.28932  -0.00041   0.00000  -0.00020  -0.00026  22.28906
    Y1       29.40414   0.00005   0.00000   0.00000  -0.00001  29.40413
    Z1       18.39270   0.00033   0.00000   0.00021   0.00027  18.39297
    X2       23.13970   0.00694   0.00000   0.01882   0.01876  23.15846
    Y2       29.74807   0.00282   0.00000   0.00778   0.00778  29.75585
    Z2       20.19550   0.01456   0.00000   0.03916   0.03922  20.23472
    X3       21.52587  -0.00622   0.00000  -0.01707  -0.01713  21.50874
    Y3       27.53142  -0.01516   0.00000  -0.04070  -0.04070  27.49072
    Z3       18.35491  -0.00035   0.00000  -0.00108  -0.00102  18.35389
    X4       20.80588  -0.01193   0.00000  -0.03238  -0.03244  20.77344
    Y4       30.74395   0.01072   0.00000   0.02873   0.02873  30.77268
    Z4       18.08090  -0.00251   0.00000  -0.00667  -0.00661  18.07429
    X5       23.68394   0.01161   0.00000   0.03113   0.03107  23.71501
    Y5       29.59311   0.00157   0.00000   0.00420   0.00420  29.59731
    Z5       16.94139  -0.01203   0.00000  -0.03192  -0.03186  16.90953
         Item               Value     Threshold  Converged?
 Maximum Force            0.015157     0.000450     NO 
 RMS     Force            0.008494     0.000300     NO 
 Maximum Displacement     0.040701     0.001800     NO 
 RMS     Displacement     0.022835     0.001200     NO 
 Predicted change in Energy=-1.454573D-03
 GradGradGradGradGradGradGradGradGradGradGradGradGradGradGradGradGradGrad

 1\1\GINC-H08R06\Force\RB3LYP\3-21G*\C1H4\ACKGYDJ0BD\09-Jul-2026\0\\#fo
 rce b3lyp/3-21G* Geom=PrintInputOrient\\Generated by MDDatasetMaker (A
 uthor: Jinzhe Zeng)\\0,1\C,11.795,15.56,9.733\H,12.245,15.742,10.687\H
 ,11.391,14.569,9.713\H,11.01,16.269,9.568\H,12.533,15.66,8.965\\Versio
 n=EM64L-G16RevB.01\State=1-A\HF=-40.3001964\RMSD=7.742e-09\RMSF=8.494e
 -03\Dipole=0.0000508,-0.0000377,0.0000108\Quadrupole=-0.0007807,0.0002
 139,0.0005669,-0.000323,-0.0005105,-0.0004388\PG=C01 [X(C1H4)]\\@


 TELEVISION IS CALLED A MEDIUM BECAUSE IT ISN'T
 RARE, AND IT ISN'T WELL DONE.
 Job cpu time:       0 days  0 hours  2 minutes 58.2 seconds.
 Elapsed time:       0 days  0 hours  0 minutes  3.8 seconds.
 File lengths (MBytes):  RWF=      6 Int=      0 D2E=      0 Chk=      1 Scr=      1
 Normal termination of Gaussian 16 at Thu Jul  9 10:26:57 2026.
