 Entering Gaussian System, Link 0=g16
 Input=loop1_O11_06.gjf
 Output=loop1_O11_06.log
 Initial command:
 /work/home/ackgydj0bd/apprepo/gaussian/16b.01-none_v1.3/app/g16/l1.exe "/work/home/ackgydj0bd/apprepo/gaussian/16b.01-none_v1.3/app/g16/scratch/Gau-40667.inp" -scrdir="/work/home/ackgydj0bd/apprepo/gaussian/16b.01-none_v1.3/app/g16/scratch/"
 Entering Link 1 = /work/home/ackgydj0bd/apprepo/gaussian/16b.01-none_v1.3/app/g16/l1.exe PID=     40668.
  
 Copyright (c) 1988-2017, Gaussian, Inc.  All Rights Reserved.
  
 This is part of the Gaussian(R) 16 program.  It is based on
 the Gaussian(R) 09 system (copyright 2009, Gaussian, Inc.),
 the Gaussian(R) 03 system (copyright 2003, Gaussian, Inc.),
 the Gaussian(R) 98 system (copyright 1998, Gaussian, Inc.),
 the Gaussian(R) 94 system (copyright 1995, Gaussian, Inc.),
 the Gaussian 92(TM) system (copyright 1992, Gaussian, Inc.),
 the Gaussian 90(TM) system (copyright 1990, Gaussian, Inc.),
 the Gaussian 88(TM) system (copyright 1988, Gaussian, Inc.),
 the Gaussian 86(TM) system (copyright 1986, Carnegie Mellon
 University), and the Gaussian 82(TM) system (copyright 1983,
 Carnegie Mellon University). Gaussian is a federally registered
 trademark of Gaussian, Inc.
  
 This software contains proprietary and confidential information,
 including trade secrets, belonging to Gaussian, Inc.
  
 This software is provided under written license and may be
 used, copied, transmitted, or stored only in accord with that
 written license.
  
 The following legend is applicable only to US Government
 contracts under FAR:
  
                    RESTRICTED RIGHTS LEGEND
  
 Use, reproduction and disclosure by the US Government is
 subject to restrictions as set forth in subparagraphs (a)
 and (c) of the Commercial Computer Software - Restricted
 Rights clause in FAR 52.227-19.
  
 Gaussian, Inc.
 340 Quinnipiac St., Bldg. 40, Wallingford CT 06492
  
  
 ---------------------------------------------------------------
 Warning -- This program may not be used in any manner that
 competes with the business of Gaussian, Inc. or will provide
 assistance to any competitor of Gaussian, Inc.  The licensee
 of this program is prohibited from giving any competitor of
 Gaussian, Inc. access to this program.  By using this program,
 the user acknowledges that Gaussian, Inc. is engaged in the
 business of creating and licensing software in the field of
 computational chemistry and represents and warrants to the
 licensee that it is not a competitor of Gaussian, Inc. and that
 it will not use this program in any manner prohibited above.
 ---------------------------------------------------------------
  

 Cite this work as:
 Gaussian 16, Revision B.01,
 M. J. Frisch, G. W. Trucks, H. B. Schlegel, G. E. Scuseria, 
 M. A. Robb, J. R. Cheeseman, G. Scalmani, V. Barone, 
 G. A. Petersson, H. Nakatsuji, X. Li, M. Caricato, A. V. Marenich, 
 J. Bloino, B. G. Janesko, R. Gomperts, B. Mennucci, H. P. Hratchian, 
 J. V. Ortiz, A. F. Izmaylov, J. L. Sonnenberg, D. Williams-Young, 
 F. Ding, F. Lipparini, F. Egidi, J. Goings, B. Peng, A. Petrone, 
 T. Henderson, D. Ranasinghe, V. G. Zakrzewski, J. Gao, N. Rega, 
 G. Zheng, W. Liang, M. Hada, M. Ehara, K. Toyota, R. Fukuda, 
 J. Hasegawa, M. Ishida, T. Nakajima, Y. Honda, O. Kitao, H. Nakai, 
 T. Vreven, K. Throssell, J. A. Montgomery, Jr., J. E. Peralta, 
 F. Ogliaro, M. J. Bearpark, J. J. Heyd, E. N. Brothers, K. N. Kudin, 
 V. N. Staroverov, T. A. Keith, R. Kobayashi, J. Normand, 
 K. Raghavachari, A. P. Rendell, J. C. Burant, S. S. Iyengar, 
 J. Tomasi, M. Cossi, J. M. Millam, M. Klene, C. Adamo, R. Cammi, 
 J. W. Ochterski, R. L. Martin, K. Morokuma, O. Farkas, 
 J. B. Foresman, and D. J. Fox, Gaussian, Inc., Wallingford CT, 2016.
 
 ******************************************
 Gaussian 16:  EM64L-G16RevB.01 20-Dec-2017
                 9-Jul-2026 
 ******************************************
 %nproc=64
 Will use up to   64 processors via shared memory.
 -----------------------------------------
 #force b3lyp/3-21G* Geom=PrintInputOrient
 -----------------------------------------
 1/10=7,30=1,38=1/1,3;
 2/9=2000,12=2,17=6,18=5,40=1/2;
 3/5=5,7=1,11=2,25=1,30=1,71=1,74=-5/1,2,3;
 4//1;
 5/5=2,38=5/2;
 6/7=2,8=2,9=2,10=2,28=1/1;
 7/29=1/1,2,3,16;
 1/10=7,30=1/3;
 99//99;
 -------------------------------------------------
 Generated by MDDatasetMaker (Author: Jinzhe Zeng)
 -------------------------------------------------
 Symbolic Z-matrix:
 Charge =  0 Multiplicity = 2
 C                     4.26691   2.45016   22.7238 
 O                     2.77928   2.84267   22.2187 
 O                     3.10812   3.62356   21.292 
 H                     2.37461   3.74736   21.7521 
 O                     5.94152   2.21157   22.0803 
 

 GradGradGradGradGradGradGradGradGradGradGradGradGradGradGradGradGradGrad
 Berny optimization.
 Initialization pass.
 Trust Radius=3.00D-01 FncErr=1.00D-07 GrdErr=1.00D-07 EigMax=2.50D+02 EigMin=1.00D-04
 Number of steps in this run=      2 maximum allowed number of steps=      2.
 GradGradGradGradGradGradGradGradGradGradGradGradGradGradGradGradGradGrad

                          Input orientation:                          
 ---------------------------------------------------------------------
 Center     Atomic      Atomic             Coordinates (Angstroms)
 Number     Number       Type             X           Y           Z
 ---------------------------------------------------------------------
      1          6           0        4.266910    2.450160   22.723800
      2          8           0        2.779280    2.842670   22.218700
      3          8           0        3.108120    3.623560   21.292000
      4          1           0        2.374610    3.747360   21.752100
      5          8           0        5.941520    2.211570   22.080300
 ---------------------------------------------------------------------
                    Distance matrix (angstroms):
                    1          2          3          4          5
     1  C    0.000000
     2  O    1.619331   0.000000
     3  O    2.183967   1.255666   0.000000
     4  H    2.491531   1.095417   0.874674   0.000000
     5  O    1.809789   3.227569   3.262405   3.897334   0.000000
 Stoichiometry    CHO3(2)
 Framework group  C1[X(CHO3)]
 Deg. of freedom     9
 Full point group                 C1      NOp   1
 Largest Abelian subgroup         C1      NOp   1
 Largest concise Abelian subgroup C1      NOp   1
                         Standard orientation:                         
 ---------------------------------------------------------------------
 Center     Atomic      Atomic             Coordinates (Angstroms)
 Number     Number       Type             X           Y           Z
 ---------------------------------------------------------------------
      1          6           0        0.527102   -0.654164    0.159323
      2          8           0       -1.061621   -0.525779   -0.126524
      3          8           0       -1.169022    0.715517    0.029515
      4          1           0       -1.821854    0.172677    0.239731
      5          8           0        2.063049    0.279300   -0.052450
 ---------------------------------------------------------------------
 Rotational constants (GHZ):          25.6592002           4.3844991           3.7824038
 Standard basis: 3-21G* (6D, 7F)
 There are    38 symmetry adapted cartesian basis functions of A   symmetry.
 There are    38 symmetry adapted basis functions of A   symmetry.
    38 basis functions,    63 primitive gaussians,    38 cartesian basis functions
    16 alpha electrons       15 beta electrons
       nuclear repulsion energy       100.2623905158 Hartrees.
 NAtoms=    5 NActive=    5 NUniq=    5 SFac= 1.00D+00 NAtFMM=   60 NAOKFM=F Big=F
 Integral buffers will be    131072 words long.
 Raffenetti 2 integral format.
 Two-electron integral symmetry is turned on.
 One-electron integrals computed using PRISM.
 PrsmSu:  requested number of processors reduced to:  31 ShMem   1 Linda.
 NBasis=    38 RedAO= T EigKep=  5.14D-02  NBF=    38
 NBsUse=    38 1.00D-06 EigRej= -1.00D+00 NBFU=    38
 ExpMin= 1.83D-01 ExpMax= 3.22D+02 ExpMxC= 3.22D+02 IAcc=3 IRadAn=         5 AccDes= 0.00D+00
 Harris functional with IExCor=  402 and IRadAn=       5 diagonalized for initial guess.
 HarFok:  IExCor=  402 AccDes= 0.00D+00 IRadAn=         5 IDoV= 1 UseB2=F ITyADJ=14
 ICtDFT=  3500011 ScaDFX=  1.000000  1.000000  1.000000  1.000000
 FoFCou: FMM=F IPFlag=           0 FMFlag=      100000 FMFlg1=           0
         NFxFlg=           0 DoJE=T BraDBF=F KetDBF=T FulRan=T
         wScrn=  0.000000 ICntrl=       500 IOpCl=  0 I1Cent=   200000004 NGrid=           0
         NMat0=    1 NMatS0=      1 NMatT0=    0 NMatD0=    1 NMtDS0=    0 NMtDT0=    0
 Petite list used in FoFCou.
 Initial guess <Sx>= 0.0000 <Sy>= 0.0000 <Sz>= 0.5000 <S**2>= 0.7500 S= 0.5000
 Keep R1 and R2 ints in memory in canonical form, NReq=55854913.
 Requested convergence on RMS density matrix=1.00D-08 within 128 cycles.
 Requested convergence on MAX density matrix=1.00D-06.
 Requested convergence on             energy=1.00D-06.
 No special actions if energy rises.
 Integral accuracy reduced to 1.0D-05 until final iterations.
 EnCoef did     3 forward-backward iterations
 Rare condition: small coef for last iteration:  0.000D+00
 Rare condition: small coef for last iteration:  0.000D+00
 Problem detected with inexpensive integrals.
 Switching to full accuracy and repeating last cycle.
 Rare condition: small coef for last iteration:  0.000D+00
 EnCoef did   100 forward-backward iterations
 Rare condition: small coef for last iteration:  0.000D+00
 Rare condition: small coef for last iteration:  0.000D+00
 Rare condition: small coef for last iteration:  0.000D+00
 Rare condition: small coef for last iteration:  0.000D+00
 EnCoef did   100 forward-backward iterations
 Rare condition: small coef for last iteration:  0.000D+00
 Rare condition: small coef for last iteration:  0.000D+00
 Rare condition: small coef for last iteration:  0.000D+00
 Rare condition: small coef for last iteration:  0.000D+00
 Rare condition: small coef for last iteration:  0.000D+00
 Rare condition: small coef for last iteration:  0.000D+00
 Rare condition: small coef for last iteration:  0.000D+00
 Rare condition: small coef for last iteration:  0.000D+00
 Rare condition: small coef for last iteration:  0.000D+00
 Rare condition: small coef for last iteration:  0.000D+00
 Rare condition: small coef for last iteration:  0.000D+00
 Rare condition: small coef for last iteration:  0.000D+00
 Rare condition: small coef for last iteration:  0.000D+00
 Rare condition: small coef for last iteration:  0.000D+00
 Rare condition: small coef for last iteration:  0.000D+00
 Rare condition: small coef for last iteration:  0.000D+00
 Rare condition: small coef for last iteration:  0.000D+00
 Rare condition: small coef for last iteration:  0.000D+00
 Rare condition: small coef for last iteration:  0.000D+00
 Rare condition: small coef for last iteration:  0.000D+00
 Rare condition: small coef for last iteration:  0.000D+00
 Rare condition: small coef for last iteration:  0.000D+00
 Rare condition: small coef for last iteration:  0.000D+00
 Rare condition: small coef for last iteration:  0.000D+00
 Rare condition: small coef for last iteration:  0.000D+00
 Rare condition: small coef for last iteration:  0.000D+00
 Rare condition: small coef for last iteration:  0.000D+00
 Rare condition: small coef for last iteration:  0.000D+00
 Rare condition: small coef for last iteration:  0.000D+00
 Rare condition: small coef for last iteration:  0.000D+00
 Rare condition: small coef for last iteration:  0.000D+00
 Rare condition: small coef for last iteration:  0.000D+00
 Rare condition: small coef for last iteration:  0.000D+00
 Rare condition: small coef for last iteration:  0.000D+00
 Rare condition: small coef for last iteration:  0.000D+00
 Rare condition: small coef for last iteration:  0.000D+00
 Rare condition: small coef for last iteration:  0.000D+00
 Rare condition: small coef for last iteration:  0.000D+00
 Rare condition: small coef for last iteration:  0.000D+00
 Rare condition: small coef for last iteration:  0.000D+00
 Rare condition: small coef for last iteration:  0.000D+00
 Rare condition: small coef for last iteration:  0.000D+00
 Rare condition: small coef for last iteration:  0.000D+00
 >>>>>>>>>> Convergence criterion not met.
 SCF Done:  E(UB3LYP) =  -262.330637306     A.U. after  129 cycles
            NFock=128  Conv=0.40D-02     -V/T= 2.0049
 <Sx>= 0.0000 <Sy>= 0.0000 <Sz>= 0.5000 <S**2>= 0.9197 S= 0.5815
 <L.S>= 0.000000000000E+00
 Annihilation of the first spin contaminant:
 S**2 before annihilation     0.9197,   after     0.7550

 **********************************************************************

            Population analysis using the SCF Density.

 **********************************************************************

 Orbital symmetries:
 Alpha Orbitals:
       Occupied  (A) (A) (A) (A) (A) (A) (A) (A) (A) (A) (A) (A)
                 (A) (A) (A) (A)
       Virtual   (A) (A) (A) (A) (A) (A) (A) (A) (A) (A) (A) (A)
                 (A) (A) (A) (A) (A) (A) (A) (A) (A) (A)
 Beta  Orbitals:
       Occupied  (A) (A) (A) (A) (A) (A) (A) (A) (A) (A) (A) (A)
                 (A) (A) (A)
       Virtual   (A) (A) (A) (A) (A) (A) (A) (A) (A) (A) (A) (A)
                 (A) (A) (A) (A) (A) (A) (A) (A) (A) (A) (A)
 The electronic state is 2-A.
 Alpha  occ. eigenvalues --  -19.20474 -19.11872 -19.10057 -10.33764  -1.39941
 Alpha  occ. eigenvalues --   -0.91329  -0.89167  -0.68920  -0.58317  -0.52728
 Alpha  occ. eigenvalues --   -0.50102  -0.38356  -0.32047  -0.30832  -0.29499
 Alpha  occ. eigenvalues --   -0.26626
 Alpha virt. eigenvalues --   -0.14684  -0.10710   0.05096   0.12895   0.15781
 Alpha virt. eigenvalues --    0.66609   0.68222   0.74971   0.91561   1.06957
 Alpha virt. eigenvalues --    1.31622   1.35589   1.42384   1.43418   1.46682
 Alpha virt. eigenvalues --    1.51302   1.53506   1.62519   1.71732   2.52179
 Alpha virt. eigenvalues --    2.80501   2.83300
  Beta  occ. eigenvalues --  -19.20120 -19.11654 -19.09482 -10.32765  -1.39406
  Beta  occ. eigenvalues --   -0.89586  -0.87828  -0.67700  -0.57049  -0.51871
  Beta  occ. eigenvalues --   -0.47489  -0.36435  -0.30717  -0.30541  -0.26551
  Beta virt. eigenvalues --   -0.14973  -0.12127  -0.08612   0.07919   0.13433
  Beta virt. eigenvalues --    0.16357   0.68102   0.72585   0.75592   0.91730
  Beta virt. eigenvalues --    1.08971   1.32067   1.35974   1.42846   1.43504
  Beta virt. eigenvalues --    1.46782   1.53903   1.55329   1.62825   1.72674
  Beta virt. eigenvalues --    2.53475   2.81304   2.83765
          Condensed to atoms (all electrons):
               1          2          3          4          5
     1  C    5.543779   0.096503  -0.060915   0.012193   0.179928
     2  O    0.096503   8.422150  -0.179737  -0.062361  -0.000745
     3  O   -0.060915  -0.179737   8.284485   0.230516  -0.000396
     4  H    0.012193  -0.062361   0.230516   0.398649   0.000090
     5  O    0.179928  -0.000745  -0.000396   0.000090   7.920790
          Atomic-Atomic Spin Densities.
               1          2          3          4          5
     1  C    0.656739  -0.072341  -0.007414   0.000711  -0.002678
     2  O   -0.072341   0.199745  -0.025259   0.001566   0.000492
     3  O   -0.007414  -0.025259   0.103279  -0.004291  -0.000060
     4  H    0.000711   0.001566  -0.004291   0.001526   0.000035
     5  O   -0.002678   0.000492  -0.000060   0.000035   0.257191
 Mulliken charges and spin densities:
               1          2
     1  C    0.228512   0.575017
     2  O   -0.275808   0.104202
     3  O   -0.273951   0.066254
     4  H    0.420914  -0.000453
     5  O   -0.099667   0.254979
 Sum of Mulliken charges =   0.00000   1.00000
 Mulliken charges and spin densities with hydrogens summed into heavy atoms:
               1          2
     1  C    0.228512   0.575017
     2  O   -0.275808   0.104202
     3  O    0.146963   0.065801
     5  O   -0.099667   0.254979
 Electronic spatial extent (au):  <R**2>=            294.0937
 Charge=              0.0000 electrons
 Dipole moment (field-independent basis, Debye):
    X=             -2.1584    Y=             -0.4193    Z=              0.3507  Tot=              2.2266
 Quadrupole moment (field-independent basis, Debye-Ang):
   XX=            -19.9369   YY=            -23.2306   ZZ=            -21.5523
   XY=              0.3211   XZ=             -1.4392   YZ=              0.2200
 Traceless Quadrupole moment (field-independent basis, Debye-Ang):
   XX=              1.6363   YY=             -1.6573   ZZ=              0.0210
   XY=              0.3211   XZ=             -1.4392   YZ=              0.2200
 Octapole moment (field-independent basis, Debye-Ang**2):
  XXX=            -16.1071  YYY=              4.4226  ZZZ=             -0.9289  XYY=              0.2146
  XXY=              2.5872  XXZ=              0.9578  XZZ=             -1.6670  YZZ=              1.4216
  YYZ=             -0.6967  XYZ=             -0.0196
 Hexadecapole moment (field-independent basis, Debye-Ang**3):
 XXXX=           -219.5615 YYYY=            -56.7388 ZZZZ=            -16.9381 XXXY=              3.5112
 XXXZ=             -5.8257 YYYX=              3.5751 YYYZ=              1.6271 ZZZX=             -1.2597
 ZZZY=              0.8337 XXYY=            -50.5235 XXZZ=            -42.6299 YYZZ=            -12.7474
 XXYZ=              0.0693 YYXZ=             -1.1455 ZZXY=              0.9265
 N-N= 1.002623905158D+02 E-N=-8.189145195172D+02  KE= 2.610551057984D+02
                          Isotropic Fermi Contact Couplings
        Atom                 a.u.       MegaHertz       Gauss      10(-4) cm-1
     1  C(13)              0.24283     272.98216      97.40682      91.05705
     2  O(17)              0.05338     -32.35806     -11.54616     -10.79349
     3  O(17)              0.03907     -23.68588      -8.45171      -7.90076
     4  H(1)              -0.00112      -5.02368      -1.79257      -1.67572
     5  O(17)              0.00461      -2.79656      -0.99788      -0.93283
 --------------------------------------------------------
       Center         ----  Spin Dipole Couplings  ----
                      3XX-RR        3YY-RR        3ZZ-RR
 --------------------------------------------------------
     1   Atom       -0.382402      0.544211     -0.161809
     2   Atom        0.340800     -0.233459     -0.107341
     3   Atom        0.206083     -0.120592     -0.085491
     4   Atom        0.011844      0.005615     -0.017459
     5   Atom       -1.711197      2.041696     -0.330499
 --------------------------------------------------------
                        XY            XZ            YZ
 --------------------------------------------------------
     1   Atom       -0.099148     -0.023322     -0.040017
     2   Atom       -0.110101      0.404164     -0.057761
     3   Atom       -0.126406      0.232128     -0.075732
     4   Atom       -0.005100     -0.010016      0.000570
     5   Atom        1.490667     -0.105214     -1.497272
 --------------------------------------------------------


 ---------------------------------------------------------------------------------
              Anisotropic Spin Dipole Couplings in Principal Axis System
 ---------------------------------------------------------------------------------

       Atom             a.u.   MegaHertz   Gauss  10(-4) cm-1        Axes

              Baa    -0.3961   -53.155   -18.967   -17.731  0.9871  0.1091  0.1169
     1 C(13)  Bbb    -0.1605   -21.541    -7.686    -7.185 -0.1218  0.0392  0.9918
              Bcc     0.5566    74.696    26.653    24.916 -0.1036  0.9933 -0.0520
 
              Baa    -0.3458    25.021     8.928     8.346 -0.5138 -0.0637  0.8555
     2 O(17)  Bbb    -0.2516    18.208     6.497     6.073  0.0945  0.9870  0.1303
              Bcc     0.5974   -43.228   -15.425   -14.419  0.8527 -0.1478  0.5011
 
              Baa    -0.2143    15.507     5.533     5.172 -0.4594  0.0941  0.8832
     3 O(17)  Bbb    -0.1636    11.839     4.225     3.949  0.2941  0.9544  0.0513
              Bcc     0.3779   -27.346    -9.758    -9.122  0.8381 -0.2833  0.4661
 
              Baa    -0.0206   -10.986    -3.920    -3.665  0.3002  0.0377  0.9531
     4 H(1)   Bbb     0.0034     1.837     0.656     0.613  0.3725  0.9152 -0.1535
              Bcc     0.0171     9.149     3.265     3.052  0.8781 -0.4012 -0.2607
 
              Baa    -2.3300   168.597    60.160    56.238  0.8898 -0.3865 -0.2426
     5 O(17)  Bbb    -0.8366    60.534    21.600    20.192  0.3624  0.2755  0.8904
              Bcc     3.1666  -229.131   -81.760   -76.430  0.2773  0.8802 -0.3852
 

 ---------------------------------------------------------------------------------

 SCFChk:  SCF convergence  4.01D-03 required  1.00D-08


 SCF Error SCF Error SCF Error SCF Error SCF Error SCF Error SCF Error SCF Error

                                    ERROR!!!!

    SCF has not converged.  Gradients and post-SCF results would be GARBAGE!!

 SCF Error SCF Error SCF Error SCF Error SCF Error SCF Error SCF Error SCF Error


 Error termination via Lnk1e in /work/home/ackgydj0bd/apprepo/gaussian/16b.01-none_v1.3/app/g16/l701.exe at Thu Jul  9 10:30:23 2026.
 Job cpu time:       0 days  0 hours  4 minutes 25.9 seconds.
 Elapsed time:       0 days  0 hours  0 minutes  4.7 seconds.
 File lengths (MBytes):  RWF=      6 Int=      0 D2E=      0 Chk=      1 Scr=      1
