 Entering Gaussian System, Link 0=g16
 Input=loop1_O1_03.gjf
 Output=loop1_O1_03.log
 Initial command:
 /work/home/ackgydj0bd/apprepo/gaussian/16b.01-none_v1.3/app/g16/l1.exe "/work/home/ackgydj0bd/apprepo/gaussian/16b.01-none_v1.3/app/g16/scratch/Gau-26894.inp" -scrdir="/work/home/ackgydj0bd/apprepo/gaussian/16b.01-none_v1.3/app/g16/scratch/"
 Entering Link 1 = /work/home/ackgydj0bd/apprepo/gaussian/16b.01-none_v1.3/app/g16/l1.exe PID=     26895.
  
 Copyright (c) 1988-2017, Gaussian, Inc.  All Rights Reserved.
  
 This is part of the Gaussian(R) 16 program.  It is based on
 the Gaussian(R) 09 system (copyright 2009, Gaussian, Inc.),
 the Gaussian(R) 03 system (copyright 2003, Gaussian, Inc.),
 the Gaussian(R) 98 system (copyright 1998, Gaussian, Inc.),
 the Gaussian(R) 94 system (copyright 1995, Gaussian, Inc.),
 the Gaussian 92(TM) system (copyright 1992, Gaussian, Inc.),
 the Gaussian 90(TM) system (copyright 1990, Gaussian, Inc.),
 the Gaussian 88(TM) system (copyright 1988, Gaussian, Inc.),
 the Gaussian 86(TM) system (copyright 1986, Carnegie Mellon
 University), and the Gaussian 82(TM) system (copyright 1983,
 Carnegie Mellon University). Gaussian is a federally registered
 trademark of Gaussian, Inc.
  
 This software contains proprietary and confidential information,
 including trade secrets, belonging to Gaussian, Inc.
  
 This software is provided under written license and may be
 used, copied, transmitted, or stored only in accord with that
 written license.
  
 The following legend is applicable only to US Government
 contracts under FAR:
  
                    RESTRICTED RIGHTS LEGEND
  
 Use, reproduction and disclosure by the US Government is
 subject to restrictions as set forth in subparagraphs (a)
 and (c) of the Commercial Computer Software - Restricted
 Rights clause in FAR 52.227-19.
  
 Gaussian, Inc.
 340 Quinnipiac St., Bldg. 40, Wallingford CT 06492
  
  
 ---------------------------------------------------------------
 Warning -- This program may not be used in any manner that
 competes with the business of Gaussian, Inc. or will provide
 assistance to any competitor of Gaussian, Inc.  The licensee
 of this program is prohibited from giving any competitor of
 Gaussian, Inc. access to this program.  By using this program,
 the user acknowledges that Gaussian, Inc. is engaged in the
 business of creating and licensing software in the field of
 computational chemistry and represents and warrants to the
 licensee that it is not a competitor of Gaussian, Inc. and that
 it will not use this program in any manner prohibited above.
 ---------------------------------------------------------------
  

 Cite this work as:
 Gaussian 16, Revision B.01,
 M. J. Frisch, G. W. Trucks, H. B. Schlegel, G. E. Scuseria, 
 M. A. Robb, J. R. Cheeseman, G. Scalmani, V. Barone, 
 G. A. Petersson, H. Nakatsuji, X. Li, M. Caricato, A. V. Marenich, 
 J. Bloino, B. G. Janesko, R. Gomperts, B. Mennucci, H. P. Hratchian, 
 J. V. Ortiz, A. F. Izmaylov, J. L. Sonnenberg, D. Williams-Young, 
 F. Ding, F. Lipparini, F. Egidi, J. Goings, B. Peng, A. Petrone, 
 T. Henderson, D. Ranasinghe, V. G. Zakrzewski, J. Gao, N. Rega, 
 G. Zheng, W. Liang, M. Hada, M. Ehara, K. Toyota, R. Fukuda, 
 J. Hasegawa, M. Ishida, T. Nakajima, Y. Honda, O. Kitao, H. Nakai, 
 T. Vreven, K. Throssell, J. A. Montgomery, Jr., J. E. Peralta, 
 F. Ogliaro, M. J. Bearpark, J. J. Heyd, E. N. Brothers, K. N. Kudin, 
 V. N. Staroverov, T. A. Keith, R. Kobayashi, J. Normand, 
 K. Raghavachari, A. P. Rendell, J. C. Burant, S. S. Iyengar, 
 J. Tomasi, M. Cossi, J. M. Millam, M. Klene, C. Adamo, R. Cammi, 
 J. W. Ochterski, R. L. Martin, K. Morokuma, O. Farkas, 
 J. B. Foresman, and D. J. Fox, Gaussian, Inc., Wallingford CT, 2016.
 
 ******************************************
 Gaussian 16:  EM64L-G16RevB.01 20-Dec-2017
                 9-Jul-2026 
 ******************************************
 %nproc=64
 Will use up to   64 processors via shared memory.
 -----------------------------------------
 #force b3lyp/3-21G* Geom=PrintInputOrient
 -----------------------------------------
 1/10=7,30=1,38=1/1,3;
 2/9=2000,12=2,17=6,18=5,40=1/2;
 3/5=5,7=1,11=2,25=1,30=1,71=1,74=-5/1,2,3;
 4//1;
 5/5=2,38=5/2;
 6/7=2,8=2,9=2,10=2,28=1/1;
 7/29=1/1,2,3,16;
 1/10=7,30=1/3;
 99//99;
 -------------------------------------------------
 Generated by MDDatasetMaker (Author: Jinzhe Zeng)
 -------------------------------------------------
 Symbolic Z-matrix:
 Charge =  0 Multiplicity = 3
 H                     0.92682   22.7414   16.8348 
 H                    -0.7415    23.1367   14.8741 
 O                     0.34661   22.6941   15.2587 
 

 GradGradGradGradGradGradGradGradGradGradGradGradGradGradGradGradGradGrad
 Berny optimization.
 Initialization pass.
 Trust Radius=3.00D-01 FncErr=1.00D-07 GrdErr=1.00D-07 EigMax=2.50D+02 EigMin=1.00D-04
 Number of steps in this run=      2 maximum allowed number of steps=      2.
 GradGradGradGradGradGradGradGradGradGradGradGradGradGradGradGradGradGrad

                          Input orientation:                          
 ---------------------------------------------------------------------
 Center     Atomic      Atomic             Coordinates (Angstroms)
 Number     Number       Type             X           Y           Z
 ---------------------------------------------------------------------
      1          1           0        0.926820   22.741400   16.834800
      2          1           0       -0.741500   23.136700   14.874100
      3          8           0        0.346610   22.694100   15.258700
 ---------------------------------------------------------------------
                    Distance matrix (angstroms):
                    1          2          3
     1  H    0.000000
     2  H    2.604592   0.000000
     3  O    1.680170   1.236040   0.000000
 Stoichiometry    H2O(3)
 Framework group  CS[SG(H2O)]
 Deg. of freedom     3
 Full point group                 CS      NOp   2
 Largest Abelian subgroup         CS      NOp   2
 Largest concise Abelian subgroup C1      NOp   1
                         Standard orientation:                         
 ---------------------------------------------------------------------
 Center     Atomic      Atomic             Coordinates (Angstroms)
 Number     Number       Type             X           Y           Z
 ---------------------------------------------------------------------
      1          1           0        1.215435   -1.021560    0.000000
      2          1           0       -1.215435   -0.086270    0.000000
      3          8           0        0.000000    0.138479    0.000000
 ---------------------------------------------------------------------
 Rotational constants (GHZ):         703.7828137         142.0171548         118.1712420
 Standard basis: 3-21G* (6D, 7F)
 There are    11 symmetry adapted cartesian basis functions of A'  symmetry.
 There are     2 symmetry adapted cartesian basis functions of A"  symmetry.
 There are    11 symmetry adapted basis functions of A'  symmetry.
 There are     2 symmetry adapted basis functions of A"  symmetry.
    13 basis functions,    21 primitive gaussians,    13 cartesian basis functions
     6 alpha electrons        4 beta electrons
       nuclear repulsion energy         6.1477909089 Hartrees.
 NAtoms=    3 NActive=    3 NUniq=    3 SFac= 1.00D+00 NAtFMM=   60 NAOKFM=F Big=F
 Integral buffers will be    131072 words long.
 Raffenetti 2 integral format.
 Two-electron integral symmetry is turned on.
 One-electron integrals computed using PRISM.
 PrsmSu:  requested number of processors reduced to:  31 ShMem   1 Linda.
 NBasis=    13 RedAO= T EigKep=  1.70D-01  NBF=    11     2
 NBsUse=    13 1.00D-06 EigRej= -1.00D+00 NBFU=    11     2
 ExpMin= 1.83D-01 ExpMax= 3.22D+02 ExpMxC= 3.22D+02 IAcc=3 IRadAn=         5 AccDes= 0.00D+00
 Harris functional with IExCor=  402 and IRadAn=       5 diagonalized for initial guess.
 HarFok:  IExCor=  402 AccDes= 0.00D+00 IRadAn=         5 IDoV= 1 UseB2=F ITyADJ=14
 ICtDFT=  3500011 ScaDFX=  1.000000  1.000000  1.000000  1.000000
 FoFCou: FMM=F IPFlag=           0 FMFlag=      100000 FMFlg1=           0
         NFxFlg=           0 DoJE=T BraDBF=F KetDBF=T FulRan=T
         wScrn=  0.000000 ICntrl=       500 IOpCl=  0 I1Cent=   200000004 NGrid=           0
         NMat0=    1 NMatS0=      1 NMatT0=    0 NMatD0=    1 NMtDS0=    0 NMtDT0=    0
 Petite list used in FoFCou.
 Initial guess orbital symmetries:
 Alpha Orbitals:
       Occupied  (A') (A') (A') (A') (A") (A')
       Virtual   (A') (A') (A') (A") (A') (A') (A')
 Beta  Orbitals:
       Occupied  (A') (A') (A') (A')
       Virtual   (A") (A') (A') (A') (A') (A") (A') (A') (A')
 The electronic state of the initial guess is 3-A".
 Initial guess <Sx>= 0.0000 <Sy>= 0.0000 <Sz>= 1.0000 <S**2>= 2.0000 S= 1.0000
 Keep R1 and R2 ints in memory in symmetry-blocked form, NReq=55211669.
 Requested convergence on RMS density matrix=1.00D-08 within 128 cycles.
 Requested convergence on MAX density matrix=1.00D-06.
 Requested convergence on             energy=1.00D-06.
 No special actions if energy rises.
 Integral accuracy reduced to 1.0D-05 until final iterations.
 Initial convergence to 1.0D-05 achieved.  Increase integral accuracy.
 SCF Done:  E(UB3LYP) =  -75.7791753390     A.U. after   15 cycles
            NFock= 15  Conv=0.23D-08     -V/T= 2.0095
 <Sx>= 0.0000 <Sy>= 0.0000 <Sz>= 1.0000 <S**2>= 2.0043 S= 1.0014
 <L.S>= 0.000000000000E+00
 Annihilation of the first spin contaminant:
 S**2 before annihilation     2.0043,   after     2.0000

 **********************************************************************

            Population analysis using the SCF Density.

 **********************************************************************

 Orbital symmetries:
 Alpha Orbitals:
       Occupied  (A') (A') (A') (A") (A') (A')
       Virtual   (A') (A') (A') (A") (A') (A') (A')
 Beta  Orbitals:
       Occupied  (A') (A') (A') (A')
       Virtual   (A") (A') (A') (A') (A') (A") (A') (A') (A')
 The electronic state is 3-A".
 Alpha  occ. eigenvalues --  -19.13501  -0.98424  -0.45802  -0.40950  -0.36602
 Alpha  occ. eigenvalues --   -0.19287
 Alpha virt. eigenvalues --   -0.00835   0.81080   0.92712   1.31090   1.39887
 Alpha virt. eigenvalues --    1.56906   2.36002
  Beta  occ. eigenvalues --  -19.10556  -0.89687  -0.42217  -0.30902
  Beta virt. eigenvalues --   -0.14576  -0.02715   0.03891   0.82005   1.05677
  Beta virt. eigenvalues --    1.43330   1.43482   1.59758   2.42619
          Condensed to atoms (all electrons):
               1          2          3
     1  H    1.103036   0.015828  -0.029081
     2  H    0.015828   0.592792   0.145673
     3  O   -0.029081   0.145673   8.039331
          Atomic-Atomic Spin Densities.
               1          2          3
     1  H    0.952900   0.020465  -0.145162
     2  H    0.020465   0.059725  -0.047473
     3  O   -0.145162  -0.047473   1.331714
 Mulliken charges and spin densities:
               1          2
     1  H   -0.089783   0.828203
     2  H    0.245707   0.032717
     3  O   -0.155923   1.139079
 Sum of Mulliken charges =   0.00000   2.00000
 Mulliken charges and spin densities with hydrogens summed into heavy atoms:
               1          2
     3  O    0.000000   2.000000
 Electronic spatial extent (au):  <R**2>=             30.1458
 Charge=              0.0000 electrons
 Dipole moment (field-independent basis, Debye):
    X=             -2.0857    Y=              0.1794    Z=              0.0000  Tot=              2.0934
 Quadrupole moment (field-independent basis, Debye-Ang):
   XX=             -5.8810   YY=             -8.0903   ZZ=             -6.5992
   XY=              0.8093   XZ=              0.0000   YZ=              0.0000
 Traceless Quadrupole moment (field-independent basis, Debye-Ang):
   XX=              0.9758   YY=             -1.2335   ZZ=              0.2577
   XY=              0.8093   XZ=              0.0000   YZ=              0.0000
 Octapole moment (field-independent basis, Debye-Ang**2):
  XXX=             -5.6462  YYY=              2.7398  ZZZ=              0.0000  XYY=             -1.3992
  XXY=              1.3670  XXZ=              0.0000  XZZ=             -0.7477  YZZ=              0.8547
  YYZ=              0.0000  XYZ=              0.0000
 Hexadecapole moment (field-independent basis, Debye-Ang**3):
 XXXX=            -21.4432 YYYY=            -15.2564 ZZZZ=             -4.4442 XXXY=              6.2087
 XXXZ=              0.0000 YYYX=              5.6350 YYYZ=              0.0000 ZZZX=              0.0000
 ZZZY=              0.0000 XXYY=             -7.1522 XXZZ=             -4.6990 YYZZ=             -3.1722
 XXYZ=              0.0000 YYXZ=              0.0000 ZZXY=              1.6592
 N-N= 6.147790908920D+00 E-N=-1.913476748185D+02  KE= 7.506898053676D+01
 Symmetry A'   KE= 7.249026092863D+01
 Symmetry A"   KE= 2.578719608128D+00
 Symmetry A'   SP= 1.000000000000D+00
 Symmetry A"   SP= 1.000000000000D+00
                          Isotropic Fermi Contact Couplings
        Atom                 a.u.       MegaHertz       Gauss      10(-4) cm-1
     1  H(1)               0.21366     477.52140     170.39151     159.28399
     2  H(1)               0.00295       6.59715       2.35403       2.20057
     3  O(17)              0.43938    -133.17511     -47.52019     -44.42244
 --------------------------------------------------------
       Center         ----  Spin Dipole Couplings  ----
                      3XX-RR        3YY-RR        3ZZ-RR
 --------------------------------------------------------
     1   Atom        0.004616      0.006614     -0.011230
     2   Atom        0.123756     -0.069699     -0.054057
     3   Atom       -1.920338     -1.196305      3.116643
 --------------------------------------------------------
                        XY            XZ            YZ
 --------------------------------------------------------
     1   Atom       -0.022465      0.000000      0.000000
     2   Atom        0.028182      0.000000      0.000000
     3   Atom        0.002796      0.000000      0.000000
 --------------------------------------------------------


 ---------------------------------------------------------------------------------
              Anisotropic Spin Dipole Couplings in Principal Axis System
 ---------------------------------------------------------------------------------

       Atom             a.u.   MegaHertz   Gauss  10(-4) cm-1        Axes

              Baa    -0.0169    -9.002    -3.212    -3.003  0.7226  0.6912  0.0000
     1 H(1)   Bbb    -0.0112    -5.992    -2.138    -1.999  0.0000  0.0000  1.0000
              Bcc     0.0281    14.994     5.350     5.001 -0.6912  0.7226  0.0000
 
              Baa    -0.0737   -39.334   -14.035   -13.120 -0.1413  0.9900  0.0000
     2 H(1)   Bbb    -0.0541   -28.842   -10.292    -9.621  0.0000  0.0000  1.0000
              Bcc     0.1278    68.176    24.327    22.741  0.9900  0.1413  0.0000
 
              Baa    -1.9203   138.955    49.583    46.350  1.0000 -0.0039  0.0000
     3 O(17)  Bbb    -1.1963    86.563    30.888    28.874  0.0039  1.0000  0.0000
              Bcc     3.1166  -225.518   -80.470   -75.225  0.0000  0.0000  1.0000
 

 ---------------------------------------------------------------------------------

 PrsmSu:  requested number of processors reduced to:  31 ShMem   1 Linda.
 Calling FoFJK, ICntrl=      2127 FMM=F ISym2X=1 I1Cent= 0 IOpClX= 1 NMat=1 NMatS=1 NMatT=0.
 ***** Axes restored to original set *****
 -------------------------------------------------------------------
 Center     Atomic                   Forces (Hartrees/Bohr)
 Number     Number              X              Y              Z
 -------------------------------------------------------------------
      1        1           0.002750647    0.000368014    0.008167722
      2        1           0.063964209   -0.025941499    0.022979312
      3        8          -0.066714856    0.025573484   -0.031147033
 -------------------------------------------------------------------
 Cartesian Forces:  Max     0.066714856 RMS     0.035655537

 GradGradGradGradGradGradGradGradGradGradGradGradGradGradGradGradGradGrad
 Berny optimization.
 Search for a local minimum.
 Step number   1 out of a maximum of    2
 All quantities printed in internal units (Hartrees-Bohrs-Radians)
 Second derivative matrix not updated -- first step.
 The second derivative matrix:
                          X1        Y1        Z1        X2        Y2
           X1           1.00000
           Y1           0.00000   1.00000
           Z1           0.00000   0.00000   1.00000
           X2           0.00000   0.00000   0.00000   1.00000
           Y2           0.00000   0.00000   0.00000   0.00000   1.00000
           Z2           0.00000   0.00000   0.00000   0.00000   0.00000
           X3           0.00000   0.00000   0.00000   0.00000   0.00000
           Y3           0.00000   0.00000   0.00000   0.00000   0.00000
           Z3           0.00000   0.00000   0.00000   0.00000   0.00000
                          Z2        X3        Y3        Z3
           Z2           1.00000
           X3           0.00000   1.00000
           Y3           0.00000   0.00000   1.00000
           Z3           0.00000   0.00000   0.00000   1.00000
 ITU=  0
     Eigenvalues ---    1.00000   1.00000   1.00000   1.00000   1.00000
     Eigenvalues ---    1.00000   1.00000   1.00000   1.00000
 Angle between quadratic step and forces=   0.00 degrees.
 ClnCor:  largest displacement from symmetrization is 1.87D-16 for atom     2.
 Linear search not attempted -- first point.
 ClnCor:  largest displacement from symmetrization is 1.33D-15 for atom     3.
 B after Tr=    -0.000002    0.000001   -0.000001
         Rot=    1.000000    0.000000    0.000000    0.000000 Ang=   0.00 deg.
 Variable       Old X    -DE/DX   Delta X   Delta X   Delta X     New X
                                 (Linear)    (Quad)   (Total)
    X1        1.75144   0.00275   0.00000   0.00275   0.00275   1.75419
    Y1       42.97502   0.00037   0.00000   0.00037   0.00037  42.97539
    Z1       31.81316   0.00817   0.00000   0.00817   0.00817  31.82133
    X2       -1.40123   0.06396   0.00000   0.06396   0.06396  -1.33727
    Y2       43.72203  -0.02594   0.00000  -0.02594  -0.02594  43.69608
    Z2       28.10798   0.02298   0.00000   0.02298   0.02298  28.13095
    X3        0.65500  -0.06671   0.00000  -0.06671  -0.06671   0.58828
    Y3       42.88563   0.02557   0.00000   0.02557   0.02557  42.91121
    Z3       28.83476  -0.03115   0.00000  -0.03115  -0.03115  28.80362
         Item               Value     Threshold  Converged?
 Maximum Force            0.066715     0.000450     NO 
 RMS     Force            0.035656     0.000300     NO 
 Maximum Displacement     0.066715     0.001800     NO 
 RMS     Displacement     0.035656     0.001200     NO 
 Predicted change in Energy=-5.720928D-03
 GradGradGradGradGradGradGradGradGradGradGradGradGradGradGradGradGradGrad

 1\1\GINC-H08R06\Force\UB3LYP\3-21G*\H2O1(3)\ACKGYDJ0BD\09-Jul-2026\0\\
 #force b3lyp/3-21G* Geom=PrintInputOrient\\Generated by MDDatasetMaker
  (Author: Jinzhe Zeng)\\0,3\H,0.92682,22.7414,16.8348\H,-0.7415,23.136
 7,14.8741\O,0.34661,22.6941,15.2587\\Version=EM64L-G16RevB.01\State=3-
 A"\HF=-75.7791753\S2=2.004274\S2-1=0.\S2A=2.000003\RMSD=2.263e-09\RMSF
 =3.566e-02\Dipole=-0.6530633,0.2201576,-0.4509364\Quadrupole=0.773155,
 0.2276313,-1.0007863,-0.2301742,0.2365258,-0.3598694\PG=CS [SG(H2O1)]\
 \@


 IT IS NOT EASY TO DESCRIBE
     THE SEA WITH THE MOUTH

                   -- KOKYU
 Job cpu time:       0 days  0 hours  2 minutes 40.2 seconds.
 Elapsed time:       0 days  0 hours  0 minutes  3.3 seconds.
 File lengths (MBytes):  RWF=      6 Int=      0 D2E=      0 Chk=      1 Scr=      1
 Normal termination of Gaussian 16 at Thu Jul  9 10:29:35 2026.
