 Entering Gaussian System, Link 0=g16
 Input=loop1_C1111_00.gjf
 Output=loop1_C1111_00.log
 Initial command:
 /work/home/ackgydj0bd/apprepo/gaussian/16b.01-none_v1.3/app/g16/l1.exe "/work/home/ackgydj0bd/apprepo/gaussian/16b.01-none_v1.3/app/g16/scratch/Gau-243322.inp" -scrdir="/work/home/ackgydj0bd/apprepo/gaussian/16b.01-none_v1.3/app/g16/scratch/"
 Entering Link 1 = /work/home/ackgydj0bd/apprepo/gaussian/16b.01-none_v1.3/app/g16/l1.exe PID=    243323.
  
 Copyright (c) 1988-2017, Gaussian, Inc.  All Rights Reserved.
  
 This is part of the Gaussian(R) 16 program.  It is based on
 the Gaussian(R) 09 system (copyright 2009, Gaussian, Inc.),
 the Gaussian(R) 03 system (copyright 2003, Gaussian, Inc.),
 the Gaussian(R) 98 system (copyright 1998, Gaussian, Inc.),
 the Gaussian(R) 94 system (copyright 1995, Gaussian, Inc.),
 the Gaussian 92(TM) system (copyright 1992, Gaussian, Inc.),
 the Gaussian 90(TM) system (copyright 1990, Gaussian, Inc.),
 the Gaussian 88(TM) system (copyright 1988, Gaussian, Inc.),
 the Gaussian 86(TM) system (copyright 1986, Carnegie Mellon
 University), and the Gaussian 82(TM) system (copyright 1983,
 Carnegie Mellon University). Gaussian is a federally registered
 trademark of Gaussian, Inc.
  
 This software contains proprietary and confidential information,
 including trade secrets, belonging to Gaussian, Inc.
  
 This software is provided under written license and may be
 used, copied, transmitted, or stored only in accord with that
 written license.
  
 The following legend is applicable only to US Government
 contracts under FAR:
  
                    RESTRICTED RIGHTS LEGEND
  
 Use, reproduction and disclosure by the US Government is
 subject to restrictions as set forth in subparagraphs (a)
 and (c) of the Commercial Computer Software - Restricted
 Rights clause in FAR 52.227-19.
  
 Gaussian, Inc.
 340 Quinnipiac St., Bldg. 40, Wallingford CT 06492
  
  
 ---------------------------------------------------------------
 Warning -- This program may not be used in any manner that
 competes with the business of Gaussian, Inc. or will provide
 assistance to any competitor of Gaussian, Inc.  The licensee
 of this program is prohibited from giving any competitor of
 Gaussian, Inc. access to this program.  By using this program,
 the user acknowledges that Gaussian, Inc. is engaged in the
 business of creating and licensing software in the field of
 computational chemistry and represents and warrants to the
 licensee that it is not a competitor of Gaussian, Inc. and that
 it will not use this program in any manner prohibited above.
 ---------------------------------------------------------------
  

 Cite this work as:
 Gaussian 16, Revision B.01,
 M. J. Frisch, G. W. Trucks, H. B. Schlegel, G. E. Scuseria, 
 M. A. Robb, J. R. Cheeseman, G. Scalmani, V. Barone, 
 G. A. Petersson, H. Nakatsuji, X. Li, M. Caricato, A. V. Marenich, 
 J. Bloino, B. G. Janesko, R. Gomperts, B. Mennucci, H. P. Hratchian, 
 J. V. Ortiz, A. F. Izmaylov, J. L. Sonnenberg, D. Williams-Young, 
 F. Ding, F. Lipparini, F. Egidi, J. Goings, B. Peng, A. Petrone, 
 T. Henderson, D. Ranasinghe, V. G. Zakrzewski, J. Gao, N. Rega, 
 G. Zheng, W. Liang, M. Hada, M. Ehara, K. Toyota, R. Fukuda, 
 J. Hasegawa, M. Ishida, T. Nakajima, Y. Honda, O. Kitao, H. Nakai, 
 T. Vreven, K. Throssell, J. A. Montgomery, Jr., J. E. Peralta, 
 F. Ogliaro, M. J. Bearpark, J. J. Heyd, E. N. Brothers, K. N. Kudin, 
 V. N. Staroverov, T. A. Keith, R. Kobayashi, J. Normand, 
 K. Raghavachari, A. P. Rendell, J. C. Burant, S. S. Iyengar, 
 J. Tomasi, M. Cossi, J. M. Millam, M. Klene, C. Adamo, R. Cammi, 
 J. W. Ochterski, R. L. Martin, K. Morokuma, O. Farkas, 
 J. B. Foresman, and D. J. Fox, Gaussian, Inc., Wallingford CT, 2016.
 
 ******************************************
 Gaussian 16:  EM64L-G16RevB.01 20-Dec-2017
                 9-Jul-2026 
 ******************************************
 %nproc=64
 Will use up to   64 processors via shared memory.
 -----------------------------------------
 #force b3lyp/3-21G* Geom=PrintInputOrient
 -----------------------------------------
 1/10=7,30=1,38=1/1,3;
 2/9=2000,12=2,17=6,18=5,40=1/2;
 3/5=5,7=1,11=2,25=1,30=1,71=1,74=-5/1,2,3;
 4//1;
 5/5=2,38=5/2;
 6/7=2,8=2,9=2,10=2,28=1/1;
 7/29=1/1,2,3,16;
 1/10=7,30=1/3;
 99//99;
 -------------------------------------------------
 Generated by MDDatasetMaker (Author: Jinzhe Zeng)
 -------------------------------------------------
 Symbolic Z-matrix:
 Charge =  0 Multiplicity = 1
 C                     17.064    9.839     3.208 
 H                     17.222    9.052     3.916 
 H                     16.85     10.749    3.73 
 H                     17.945    9.966     2.614 
 H                     16.239    9.589     2.575 
 

 GradGradGradGradGradGradGradGradGradGradGradGradGradGradGradGradGradGrad
 Berny optimization.
 Initialization pass.
 Trust Radius=3.00D-01 FncErr=1.00D-07 GrdErr=1.00D-07 EigMax=2.50D+02 EigMin=1.00D-04
 Number of steps in this run=      2 maximum allowed number of steps=      2.
 GradGradGradGradGradGradGradGradGradGradGradGradGradGradGradGradGradGrad

                          Input orientation:                          
 ---------------------------------------------------------------------
 Center     Atomic      Atomic             Coordinates (Angstroms)
 Number     Number       Type             X           Y           Z
 ---------------------------------------------------------------------
      1          6           0       17.064000    9.839000    3.208000
      2          1           0       17.222000    9.052000    3.916000
      3          1           0       16.850000   10.749000    3.730000
      4          1           0       17.945000    9.966000    2.614000
      5          1           0       16.239000    9.589000    2.575000
 ---------------------------------------------------------------------
                    Distance matrix (angstroms):
                    1          2          3          4          5
     1  C    0.000000
     2  H    1.070326   0.000000
     3  H    1.070691   1.747223   0.000000
     4  H    1.070106   1.747378   1.748591   0.000000
     5  H    1.069492   1.747266   1.747268   1.747594   0.000000
 Stoichiometry    CH4
 Framework group  C1[X(CH4)]
 Deg. of freedom     9
 Full point group                 C1      NOp   1
 Largest Abelian subgroup         C1      NOp   1
 Largest concise Abelian subgroup C1      NOp   1
                         Standard orientation:                         
 ---------------------------------------------------------------------
 Center     Atomic      Atomic             Coordinates (Angstroms)
 Number     Number       Type             X           Y           Z
 ---------------------------------------------------------------------
      1          6           0       -0.000176    0.000240   -0.000040
      2          1           0       -0.000785   -0.759049    0.754332
      3          1           0        0.808530   -0.174575   -0.679610
      4          1           0       -0.927620   -0.026537   -0.533197
      5          1           0        0.120930    0.958722    0.458717
 ---------------------------------------------------------------------
 Rotational constants (GHZ):         164.2988514         164.1729395         164.1258037
 Standard basis: 3-21G* (6D, 7F)
 There are    17 symmetry adapted cartesian basis functions of A   symmetry.
 There are    17 symmetry adapted basis functions of A   symmetry.
    17 basis functions,    27 primitive gaussians,    17 cartesian basis functions
     5 alpha electrons        5 beta electrons
       nuclear repulsion energy        13.6845540663 Hartrees.
 NAtoms=    5 NActive=    5 NUniq=    5 SFac= 1.00D+00 NAtFMM=   60 NAOKFM=F Big=F
 Integral buffers will be    131072 words long.
 Raffenetti 2 integral format.
 Two-electron integral symmetry is turned on.
 One-electron integrals computed using PRISM.
 PrsmSu:  requested number of processors reduced to:  31 ShMem   1 Linda.
 NBasis=    17 RedAO= T EigKep=  3.16D-02  NBF=    17
 NBsUse=    17 1.00D-06 EigRej= -1.00D+00 NBFU=    17
 ExpMin= 1.83D-01 ExpMax= 1.72D+02 ExpMxC= 1.72D+02 IAcc=3 IRadAn=         5 AccDes= 0.00D+00
 Harris functional with IExCor=  402 and IRadAn=       5 diagonalized for initial guess.
 HarFok:  IExCor=  402 AccDes= 0.00D+00 IRadAn=         5 IDoV= 1 UseB2=F ITyADJ=14
 ICtDFT=  3500011 ScaDFX=  1.000000  1.000000  1.000000  1.000000
 FoFCou: FMM=F IPFlag=           0 FMFlag=      100000 FMFlg1=           0
         NFxFlg=           0 DoJE=T BraDBF=F KetDBF=T FulRan=T
         wScrn=  0.000000 ICntrl=       500 IOpCl=  0 I1Cent=   200000004 NGrid=           0
         NMat0=    1 NMatS0=      1 NMatT0=    0 NMatD0=    1 NMtDS0=    0 NMtDT0=    0
 Petite list used in FoFCou.
 Keep R1 ints in memory in canonical form, NReq=55236554.
 Requested convergence on RMS density matrix=1.00D-08 within 128 cycles.
 Requested convergence on MAX density matrix=1.00D-06.
 Requested convergence on             energy=1.00D-06.
 No special actions if energy rises.
 Integral accuracy reduced to 1.0D-05 until final iterations.
 Initial convergence to 1.0D-05 achieved.  Increase integral accuracy.
 SCF Done:  E(RB3LYP) =  -40.3001796065     A.U. after    9 cycles
            NFock=  9  Conv=0.19D-08     -V/T= 2.0075

 **********************************************************************

            Population analysis using the SCF Density.

 **********************************************************************

 Orbital symmetries:
       Occupied  (A) (A) (A) (A) (A)
       Virtual   (A) (A) (A) (A) (A) (A) (A) (A) (A) (A) (A) (A)
 The electronic state is 1-A.
 Alpha  occ. eigenvalues --  -10.09021  -0.69702  -0.39308  -0.39292  -0.39264
 Alpha virt. eigenvalues --    0.15266   0.20175   0.20194   0.20213   0.69598
 Alpha virt. eigenvalues --    0.69616   0.69642   1.05725   1.07440   1.07482
 Alpha virt. eigenvalues --    1.07527   1.70660
          Condensed to atoms (all electrons):
               1          2          3          4          5
     1  C    5.301586   0.370384   0.370408   0.370525   0.370524
     2  H    0.370384   0.514158  -0.026814  -0.026778  -0.026755
     3  H    0.370408  -0.026814   0.514147  -0.026653  -0.026781
     4  H    0.370525  -0.026778  -0.026653   0.513759  -0.026723
     5  H    0.370524  -0.026755  -0.026781  -0.026723   0.513676
 Mulliken charges:
               1
     1  C   -0.783427
     2  H    0.195805
     3  H    0.195692
     4  H    0.195871
     5  H    0.196059
 Sum of Mulliken charges =   0.00000
 Mulliken charges with hydrogens summed into heavy atoms:
               1
     1  C    0.000000
 Electronic spatial extent (au):  <R**2>=             34.6357
 Charge=              0.0000 electrons
 Dipole moment (field-independent basis, Debye):
    X=              0.0004    Y=             -0.0002    Z=              0.0007  Tot=              0.0009
 Quadrupole moment (field-independent basis, Debye-Ang):
   XX=             -8.1920   YY=             -8.1941   ZZ=             -8.1970
   XY=              0.0004   XZ=              0.0009   YZ=              0.0009
 Traceless Quadrupole moment (field-independent basis, Debye-Ang):
   XX=              0.0023   YY=              0.0003   ZZ=             -0.0026
   XY=              0.0004   XZ=              0.0009   YZ=              0.0009
 Octapole moment (field-independent basis, Debye-Ang**2):
  XXX=             -0.1950  YYY=              0.3196  ZZZ=              0.0458  XYY=              0.0979
  XXY=             -0.0889  XXZ=             -0.6492  XZZ=              0.0973  YZZ=             -0.2297
  YYZ=              0.6058  XYZ=              0.0988
 Hexadecapole moment (field-independent basis, Debye-Ang**3):
 XXXX=            -14.1239 YYYY=            -14.1016 ZZZZ=            -14.6592 XXXY=             -0.0737
 XXXZ=              0.0739 YYYX=              0.1109 YYYZ=              0.0853 ZZZX=             -0.1074
 ZZZY=             -0.1854 XXYY=             -5.0874 XXZZ=             -4.5346 YYZZ=             -4.5478
 XXYZ=              0.1039 YYXZ=              0.0374 ZZXY=             -0.0357
 N-N= 1.368455406630D+01 E-N=-1.200084565912D+02  KE= 3.999833448978D+01
 PrsmSu:  requested number of processors reduced to:  31 ShMem   1 Linda.
 Calling FoFJK, ICntrl=      2127 FMM=F ISym2X=0 I1Cent= 0 IOpClX= 0 NMat=1 NMatS=1 NMatT=0.
 ***** Axes restored to original set *****
 -------------------------------------------------------------------
 Center     Atomic                   Forces (Hartrees/Bohr)
 Number     Number              X              Y              Z
 -------------------------------------------------------------------
      1        6           0.000235396    0.000288770    0.000733173
      2        1           0.002411411   -0.012154802    0.010827790
      3        1          -0.003148507    0.013812735    0.007778580
      4        1           0.013587537    0.002054240   -0.009217672
      5        1          -0.013085837   -0.004000942   -0.010121871
 -------------------------------------------------------------------
 Cartesian Forces:  Max     0.013812735 RMS     0.008548637

 GradGradGradGradGradGradGradGradGradGradGradGradGradGradGradGradGradGrad
 Berny optimization.
 Search for a local minimum.
 Step number   1 out of a maximum of    2
 All quantities printed in internal units (Hartrees-Bohrs-Radians)
 Second derivative matrix not updated -- first step.
 The second derivative matrix:
                          X1        Y1        Z1        X2        Y2
           X1           0.70907
           Y1           0.00024   0.70687
           Z1           0.00023   0.00016   0.70816
           X2          -0.08584   0.03171  -0.02854   0.06597
           Y2           0.03173  -0.23750   0.14230  -0.03395   0.22820
           Z2          -0.02856   0.14231  -0.20735   0.03053  -0.15215
           X3          -0.09114   0.04960   0.02849  -0.00011   0.00227
           Y3           0.04957  -0.29030  -0.12104   0.00311  -0.01209
           Z3           0.02849  -0.12110  -0.14874  -0.00547   0.02200
           X4          -0.27789  -0.02863   0.13373   0.01630  -0.00224
           Y4          -0.02861  -0.08356   0.01922  -0.02670   0.00408
           Z4           0.13371   0.01924  -0.16971   0.01847  -0.00246
           X5          -0.25419  -0.05292  -0.13391   0.00368   0.00219
           Y5          -0.05294  -0.09550  -0.04064   0.02584   0.01731
           Z5          -0.13386  -0.04061  -0.18236  -0.01500  -0.00970
                          Z2        X3        Y3        Z3        X4
           Z2           0.19595
           X3           0.00255   0.07161
           Y3          -0.01413  -0.05305   0.28470
           Z3           0.02568  -0.03044   0.12945   0.13328
           X4          -0.00613   0.00266   0.00126  -0.00111   0.27132
           Y4           0.01049   0.02966   0.01588  -0.01553   0.03060
           Z4          -0.00685   0.01029   0.00527  -0.00496  -0.14303
           X5           0.00162   0.01699  -0.00090   0.00853  -0.01239
           Y5           0.01348  -0.02848   0.00181  -0.01483  -0.00099
           Z5          -0.00743  -0.01089   0.00046  -0.00526   0.01654
                          Y4        Z4        X5        Y5        Z5
           Y4           0.06352
           Z4          -0.02060   0.15562
           X5          -0.00495  -0.01944   0.24592
           Y5           0.00009  -0.00144   0.05657   0.07630
           Z5           0.00642   0.02590   0.14320   0.04343   0.16915
 ITU=  0
     Eigenvalues ---    0.11734   0.11739   0.14138   0.14146   0.14156
     Eigenvalues ---    0.37211   0.86796   0.86935   0.87081
 Angle between quadratic step and forces=   1.40 degrees.
 Linear search not attempted -- first point.
 B after Tr=    -0.000006   -0.000008    0.000190
         Rot=    1.000000    0.000000    0.000000    0.000000 Ang=   0.00 deg.
 Variable       Old X    -DE/DX   Delta X   Delta X   Delta X     New X
                                 (Linear)    (Quad)   (Total)
    X1       32.24629   0.00024   0.00000  -0.00002  -0.00003  32.24626
    Y1       18.59302   0.00029   0.00000  -0.00003  -0.00004  18.59298
    Z1        6.06224   0.00073   0.00000   0.00065   0.00084   6.06308
    X2       32.54486   0.00241   0.00000   0.00652   0.00651  32.55137
    Y2       17.10580  -0.01215   0.00000  -0.03314  -0.03315  17.07265
    Z2        7.40017   0.01083   0.00000   0.02928   0.02947   7.42964
    X3       31.84189  -0.00315   0.00000  -0.00793  -0.00794  31.83395
    Y3       20.31267   0.01381   0.00000   0.03782   0.03781  20.35047
    Z3        7.04868   0.00778   0.00000   0.02068   0.02087   7.06955
    X4       33.91114   0.01359   0.00000   0.03614   0.03613  33.94727
    Y4       18.83301   0.00205   0.00000   0.00612   0.00611  18.83912
    Z4        4.93974  -0.00922   0.00000  -0.02450  -0.02431   4.91544
    X5       30.68726  -0.01309   0.00000  -0.03467  -0.03468  30.65259
    Y5       18.12058  -0.00400   0.00000  -0.01073  -0.01073  18.10985
    Z5        4.86604  -0.01012   0.00000  -0.02707  -0.02688   4.83916
         Item               Value     Threshold  Converged?
 Maximum Force            0.013813     0.000450     NO 
 RMS     Force            0.008549     0.000300     NO 
 Maximum Displacement     0.037807     0.001800     NO 
 RMS     Displacement     0.022968     0.001200     NO 
 Predicted change in Energy=-1.472143D-03
 GradGradGradGradGradGradGradGradGradGradGradGradGradGradGradGradGradGrad

 1\1\GINC-H08R06\Force\RB3LYP\3-21G*\C1H4\ACKGYDJ0BD\09-Jul-2026\0\\#fo
 rce b3lyp/3-21G* Geom=PrintInputOrient\\Generated by MDDatasetMaker (A
 uthor: Jinzhe Zeng)\\0,1\C,17.064,9.839,3.208\H,17.222,9.052,3.916\H,1
 6.85,10.749,3.73\H,17.945,9.966,2.614\H,16.239,9.589,2.575\\Version=EM
 64L-G16RevB.01\State=1-A\HF=-40.3001796\RMSD=1.940e-09\RMSF=8.549e-03\
 Dipole=-0.0001736,-0.000215,0.0002128\Quadrupole=0.0015874,-0.0020041,
 0.0004167,-0.0005896,-0.0005288,0.0007002\PG=C01 [X(C1H4)]\\@


 MOST BUREAUCRACIES FUNCTION LIKE A SEPTIC TANK.
 THE LARGE CHUNKS RISE TO THE TOP.
 Job cpu time:       0 days  0 hours  2 minutes 28.8 seconds.
 Elapsed time:       0 days  0 hours  0 minutes  3.1 seconds.
 File lengths (MBytes):  RWF=      6 Int=      0 D2E=      0 Chk=      1 Scr=      1
 Normal termination of Gaussian 16 at Thu Jul  9 10:26:42 2026.
