 Entering Gaussian System, Link 0=g16
 Input=loop1_C_04.gjf
 Output=loop1_C_04.log
 Initial command:
 /work/home/ackgydj0bd/apprepo/gaussian/16b.01-none_v1.3/app/g16/l1.exe "/work/home/ackgydj0bd/apprepo/gaussian/16b.01-none_v1.3/app/g16/scratch/Gau-225615.inp" -scrdir="/work/home/ackgydj0bd/apprepo/gaussian/16b.01-none_v1.3/app/g16/scratch/"
 Entering Link 1 = /work/home/ackgydj0bd/apprepo/gaussian/16b.01-none_v1.3/app/g16/l1.exe PID=    225616.
  
 Copyright (c) 1988-2017, Gaussian, Inc.  All Rights Reserved.
  
 This is part of the Gaussian(R) 16 program.  It is based on
 the Gaussian(R) 09 system (copyright 2009, Gaussian, Inc.),
 the Gaussian(R) 03 system (copyright 2003, Gaussian, Inc.),
 the Gaussian(R) 98 system (copyright 1998, Gaussian, Inc.),
 the Gaussian(R) 94 system (copyright 1995, Gaussian, Inc.),
 the Gaussian 92(TM) system (copyright 1992, Gaussian, Inc.),
 the Gaussian 90(TM) system (copyright 1990, Gaussian, Inc.),
 the Gaussian 88(TM) system (copyright 1988, Gaussian, Inc.),
 the Gaussian 86(TM) system (copyright 1986, Carnegie Mellon
 University), and the Gaussian 82(TM) system (copyright 1983,
 Carnegie Mellon University). Gaussian is a federally registered
 trademark of Gaussian, Inc.
  
 This software contains proprietary and confidential information,
 including trade secrets, belonging to Gaussian, Inc.
  
 This software is provided under written license and may be
 used, copied, transmitted, or stored only in accord with that
 written license.
  
 The following legend is applicable only to US Government
 contracts under FAR:
  
                    RESTRICTED RIGHTS LEGEND
  
 Use, reproduction and disclosure by the US Government is
 subject to restrictions as set forth in subparagraphs (a)
 and (c) of the Commercial Computer Software - Restricted
 Rights clause in FAR 52.227-19.
  
 Gaussian, Inc.
 340 Quinnipiac St., Bldg. 40, Wallingford CT 06492
  
  
 ---------------------------------------------------------------
 Warning -- This program may not be used in any manner that
 competes with the business of Gaussian, Inc. or will provide
 assistance to any competitor of Gaussian, Inc.  The licensee
 of this program is prohibited from giving any competitor of
 Gaussian, Inc. access to this program.  By using this program,
 the user acknowledges that Gaussian, Inc. is engaged in the
 business of creating and licensing software in the field of
 computational chemistry and represents and warrants to the
 licensee that it is not a competitor of Gaussian, Inc. and that
 it will not use this program in any manner prohibited above.
 ---------------------------------------------------------------
  

 Cite this work as:
 Gaussian 16, Revision B.01,
 M. J. Frisch, G. W. Trucks, H. B. Schlegel, G. E. Scuseria, 
 M. A. Robb, J. R. Cheeseman, G. Scalmani, V. Barone, 
 G. A. Petersson, H. Nakatsuji, X. Li, M. Caricato, A. V. Marenich, 
 J. Bloino, B. G. Janesko, R. Gomperts, B. Mennucci, H. P. Hratchian, 
 J. V. Ortiz, A. F. Izmaylov, J. L. Sonnenberg, D. Williams-Young, 
 F. Ding, F. Lipparini, F. Egidi, J. Goings, B. Peng, A. Petrone, 
 T. Henderson, D. Ranasinghe, V. G. Zakrzewski, J. Gao, N. Rega, 
 G. Zheng, W. Liang, M. Hada, M. Ehara, K. Toyota, R. Fukuda, 
 J. Hasegawa, M. Ishida, T. Nakajima, Y. Honda, O. Kitao, H. Nakai, 
 T. Vreven, K. Throssell, J. A. Montgomery, Jr., J. E. Peralta, 
 F. Ogliaro, M. J. Bearpark, J. J. Heyd, E. N. Brothers, K. N. Kudin, 
 V. N. Staroverov, T. A. Keith, R. Kobayashi, J. Normand, 
 K. Raghavachari, A. P. Rendell, J. C. Burant, S. S. Iyengar, 
 J. Tomasi, M. Cossi, J. M. Millam, M. Klene, C. Adamo, R. Cammi, 
 J. W. Ochterski, R. L. Martin, K. Morokuma, O. Farkas, 
 J. B. Foresman, and D. J. Fox, Gaussian, Inc., Wallingford CT, 2016.
 
 ******************************************
 Gaussian 16:  EM64L-G16RevB.01 20-Dec-2017
                 9-Jul-2026 
 ******************************************
 %nproc=64
 Will use up to   64 processors via shared memory.
 -----------------------------------------
 #force b3lyp/3-21G* Geom=PrintInputOrient
 -----------------------------------------
 1/10=7,30=1,38=1/1,3;
 2/9=2000,12=2,17=6,18=5,40=1/2;
 3/5=5,7=1,11=2,25=1,30=1,71=1,74=-5/1,2,3;
 4//1;
 5/5=2,38=5/2;
 6/7=2,8=2,9=2,10=2,28=1/1;
 7/29=1/1,2,3,16;
 1/10=7,30=1/3;
 99//99;
 -------------------------------------------------
 Generated by MDDatasetMaker (Author: Jinzhe Zeng)
 -------------------------------------------------
 Symbolic Z-matrix:
 Charge =  0 Multiplicity = 3
 H                     5.03265   19.4891   8.0007 
 C                     3.5674    20.0834   8.29425 
 H                     2.80381   21.0083   9.82093 
 

 GradGradGradGradGradGradGradGradGradGradGradGradGradGradGradGradGradGrad
 Berny optimization.
 Initialization pass.
 Trust Radius=3.00D-01 FncErr=1.00D-07 GrdErr=1.00D-07 EigMax=2.50D+02 EigMin=1.00D-04
 Number of steps in this run=      2 maximum allowed number of steps=      2.
 GradGradGradGradGradGradGradGradGradGradGradGradGradGradGradGradGradGrad

                          Input orientation:                          
 ---------------------------------------------------------------------
 Center     Atomic      Atomic             Coordinates (Angstroms)
 Number     Number       Type             X           Y           Z
 ---------------------------------------------------------------------
      1          1           0        5.032650   19.489100    8.000700
      2          6           0        3.567400   20.083400    8.294250
      3          1           0        2.803810   21.008300    9.820930
 ---------------------------------------------------------------------
                    Distance matrix (angstroms):
                    1          2          3
     1  H    0.000000
     2  C    1.608204   0.000000
     3  H    3.254064   1.941459   0.000000
 Stoichiometry    CH2(3)
 Framework group  CS[SG(CH2)]
 Deg. of freedom     3
 Full point group                 CS      NOp   2
 Largest Abelian subgroup         CS      NOp   2
 Largest concise Abelian subgroup C1      NOp   1
                         Standard orientation:                         
 ---------------------------------------------------------------------
 Center     Atomic      Atomic             Coordinates (Angstroms)
 Number     Number       Type             X           Y           Z
 ---------------------------------------------------------------------
      1          1           0        1.575560   -0.140286    0.000000
      2          6           0        0.000000    0.182099    0.000000
      3          1           0       -1.575560   -0.952305    0.000000
 ---------------------------------------------------------------------
 Rotational constants (GHZ):         596.0817254          93.5249184          80.8410058
 Standard basis: 3-21G* (6D, 7F)
 There are    11 symmetry adapted cartesian basis functions of A'  symmetry.
 There are     2 symmetry adapted cartesian basis functions of A"  symmetry.
 There are    11 symmetry adapted basis functions of A'  symmetry.
 There are     2 symmetry adapted basis functions of A"  symmetry.
    13 basis functions,    21 primitive gaussians,    13 cartesian basis functions
     5 alpha electrons        3 beta electrons
       nuclear repulsion energy         3.7723121270 Hartrees.
 NAtoms=    3 NActive=    3 NUniq=    3 SFac= 1.00D+00 NAtFMM=   60 NAOKFM=F Big=F
 Integral buffers will be    131072 words long.
 Raffenetti 2 integral format.
 Two-electron integral symmetry is turned on.
 One-electron integrals computed using PRISM.
 PrsmSu:  requested number of processors reduced to:  31 ShMem   1 Linda.
 NBasis=    13 RedAO= T EigKep=  1.45D-01  NBF=    11     2
 NBsUse=    13 1.00D-06 EigRej= -1.00D+00 NBFU=    11     2
 ExpMin= 1.83D-01 ExpMax= 1.72D+02 ExpMxC= 1.72D+02 IAcc=3 IRadAn=         5 AccDes= 0.00D+00
 Harris functional with IExCor=  402 and IRadAn=       5 diagonalized for initial guess.
 HarFok:  IExCor=  402 AccDes= 0.00D+00 IRadAn=         5 IDoV= 1 UseB2=F ITyADJ=14
 ICtDFT=  3500011 ScaDFX=  1.000000  1.000000  1.000000  1.000000
 FoFCou: FMM=F IPFlag=           0 FMFlag=      100000 FMFlg1=           0
         NFxFlg=           0 DoJE=T BraDBF=F KetDBF=T FulRan=T
         wScrn=  0.000000 ICntrl=       500 IOpCl=  0 I1Cent=   200000004 NGrid=           0
         NMat0=    1 NMatS0=      1 NMatT0=    0 NMatD0=    1 NMtDS0=    0 NMtDT0=    0
 Petite list used in FoFCou.
 Initial guess orbital symmetries:
 Alpha Orbitals:
       Occupied  (A') (A') (A') (A') (A")
       Virtual   (A') (A') (A") (A') (A') (A') (A') (A')
 Beta  Orbitals:
       Occupied  (A') (A') (A')
       Virtual   (A') (A") (A') (A') (A") (A') (A') (A') (A') (A')
 The electronic state of the initial guess is 3-A".
 Initial guess <Sx>= 0.0000 <Sy>= 0.0000 <Sz>= 1.0000 <S**2>= 2.0000 S= 1.0000
 Keep R1 and R2 ints in memory in symmetry-blocked form, NReq=55211669.
 Requested convergence on RMS density matrix=1.00D-08 within 128 cycles.
 Requested convergence on MAX density matrix=1.00D-06.
 Requested convergence on             energy=1.00D-06.
 No special actions if energy rises.
 Integral accuracy reduced to 1.0D-05 until final iterations.
 Initial convergence to 1.0D-05 achieved.  Increase integral accuracy.
 SCF Done:  E(UB3LYP) =  -38.7540692388     A.U. after   19 cycles
            NFock= 19  Conv=0.30D-08     -V/T= 2.0201
 <Sx>= 0.0000 <Sy>= 0.0000 <Sz>= 1.0000 <S**2>= 2.0367 S= 1.0122
 <L.S>= 0.000000000000E+00
 Annihilation of the first spin contaminant:
 S**2 before annihilation     2.0367,   after     2.0000

 **********************************************************************

            Population analysis using the SCF Density.

 **********************************************************************

 Orbital symmetries:
 Alpha Orbitals:
       Occupied  (A') (A') (A') (A') (A")
       Virtual   (A') (A') (A") (A') (A') (A') (A') (A')
 Beta  Orbitals:
       Occupied  (A') (A') (A')
       Virtual   (A') (A") (A') (A') (A') (A") (A') (A') (A') (A')
 The electronic state is 3-A".
 Alpha  occ. eigenvalues --  -10.24620  -0.58815  -0.34336  -0.27681  -0.24695
 Alpha virt. eigenvalues --   -0.10725   0.00382   0.66943   0.69271   0.79034
 Alpha virt. eigenvalues --    0.89926   0.94147   1.16841
  Beta  occ. eigenvalues --  -10.22527  -0.51216  -0.30173
  Beta virt. eigenvalues --   -0.13321  -0.05390  -0.04493   0.03766   0.74760
  Beta virt. eigenvalues --    0.75720   0.80589   0.95226   0.98490   1.22201
          Condensed to atoms (all electrons):
               1          2          3
     1  H    0.723332   0.215115  -0.002614
     2  C    0.215115   5.750742   0.150344
     3  H   -0.002614   0.150344   0.800237
          Atomic-Atomic Spin Densities.
               1          2          3
     1  H    0.073430  -0.021023   0.003392
     2  C   -0.021023   1.500910  -0.020293
     3  H    0.003392  -0.020293   0.501506
 Mulliken charges and spin densities:
               1          2
     1  H    0.064167   0.055800
     2  C   -0.116200   1.459595
     3  H    0.052033   0.484605
 Sum of Mulliken charges =   0.00000   2.00000
 Mulliken charges and spin densities with hydrogens summed into heavy atoms:
               1          2
     2  C    0.000000   2.000000
 Electronic spatial extent (au):  <R**2>=             38.7164
 Charge=              0.0000 electrons
 Dipole moment (field-independent basis, Debye):
    X=              0.1986    Y=             -0.3921    Z=              0.0000  Tot=              0.4395
 Quadrupole moment (field-independent basis, Debye-Ang):
   XX=             -6.4028   YY=             -7.4954   ZZ=             -8.9237
   XY=              0.7176   XZ=              0.0000   YZ=              0.0000
 Traceless Quadrupole moment (field-independent basis, Debye-Ang):
   XX=              1.2045   YY=              0.1119   ZZ=             -1.3164
   XY=              0.7176   XZ=              0.0000   YZ=              0.0000
 Octapole moment (field-independent basis, Debye-Ang**2):
  XXX=              0.4066  YYY=              0.2692  ZZZ=              0.0000  XYY=             -0.6395
  XXY=             -1.4976  XXZ=              0.0000  XZZ=              0.1406  YZZ=              0.0763
  YYZ=              0.0000  XYZ=              0.0000
 Hexadecapole moment (field-independent basis, Debye-Ang**3):
 XXXX=            -31.7573 YYYY=            -14.3289 ZZZZ=             -9.3825 XXXY=             -2.0095
 XXXZ=              0.0000 YYYX=             -3.1366 YYYZ=              0.0000 ZZZX=              0.0000
 ZZZY=              0.0000 XXYY=             -7.6544 XXZZ=             -8.4289 YYZZ=             -4.0931
 XXYZ=              0.0000 YYXZ=              0.0000 ZZXY=             -1.3869
 N-N= 3.772312126976D+00 E-N=-9.692108666408D+01  KE= 3.799005798196D+01
 Symmetry A'   KE= 3.672687120993D+01
 Symmetry A"   KE= 1.263186772031D+00
 Symmetry A'   SP= 1.000000000000D+00
 Symmetry A"   SP= 1.000000000000D+00
                          Isotropic Fermi Contact Couplings
        Atom                 a.u.       MegaHertz       Gauss      10(-4) cm-1
     1  H(1)               0.01932      43.17998      15.40769      14.40329
     2  C(13)              0.31638     177.83716      63.45672      59.32009
     3  H(1)               0.13333     297.97844     106.32612      99.39491
 --------------------------------------------------------
       Center         ----  Spin Dipole Couplings  ----
                      3XX-RR        3YY-RR        3ZZ-RR
 --------------------------------------------------------
     1   Atom        0.062265     -0.034992     -0.027273
     2   Atom       -0.780147     -0.190589      0.970737
     3   Atom        0.016687     -0.003070     -0.013617
 --------------------------------------------------------
                        XY            XZ            YZ
 --------------------------------------------------------
     1   Atom       -0.012556      0.000000      0.000000
     2   Atom       -0.304627      0.000000      0.000000
     3   Atom        0.021711      0.000000      0.000000
 --------------------------------------------------------


 ---------------------------------------------------------------------------------
              Anisotropic Spin Dipole Couplings in Principal Axis System
 ---------------------------------------------------------------------------------

       Atom             a.u.   MegaHertz   Gauss  10(-4) cm-1        Axes

              Baa    -0.0366   -19.521    -6.966    -6.512  0.1260  0.9920  0.0000
     1 H(1)   Bbb    -0.0273   -14.551    -5.192    -4.854  0.0000  0.0000  1.0000
              Bcc     0.0639    34.072    12.158    11.365  0.9920 -0.1260  0.0000
 
              Baa    -0.9093  -122.015   -43.538   -40.700  0.9207  0.3903  0.0000
     2 C(13)  Bbb    -0.0615    -8.248    -2.943    -2.751 -0.3903  0.9207  0.0000
              Bcc     0.9707   130.264    46.481    43.451  0.0000  0.0000  1.0000
 
              Baa    -0.0170    -9.094    -3.245    -3.034 -0.5412  0.8409  0.0000
     3 H(1)   Bbb    -0.0136    -7.265    -2.592    -2.423  0.0000  0.0000  1.0000
              Bcc     0.0307    16.359     5.837     5.457  0.8409  0.5412  0.0000
 

 ---------------------------------------------------------------------------------

 PrsmSu:  requested number of processors reduced to:  31 ShMem   1 Linda.
 Calling FoFJK, ICntrl=      2127 FMM=F ISym2X=1 I1Cent= 0 IOpClX= 1 NMat=1 NMatS=1 NMatT=0.
 ***** Axes restored to original set *****
 -------------------------------------------------------------------
 Center     Atomic                   Forces (Hartrees/Bohr)
 Number     Number              X              Y              Z
 -------------------------------------------------------------------
      1        1          -0.065715962    0.028718763    0.017775828
      2        6           0.041282371   -0.003085177    0.022229109
      3        1           0.024433592   -0.025633586   -0.040004936
 -------------------------------------------------------------------
 Cartesian Forces:  Max     0.065715962 RMS     0.034191774

 GradGradGradGradGradGradGradGradGradGradGradGradGradGradGradGradGradGrad
 Berny optimization.
 Search for a local minimum.
 Step number   1 out of a maximum of    2
 All quantities printed in internal units (Hartrees-Bohrs-Radians)
 Second derivative matrix not updated -- first step.
 The second derivative matrix:
                          X1        Y1        Z1        X2        Y2
           X1           1.00000
           Y1           0.00000   1.00000
           Z1           0.00000   0.00000   1.00000
           X2           0.00000   0.00000   0.00000   1.00000
           Y2           0.00000   0.00000   0.00000   0.00000   1.00000
           Z2           0.00000   0.00000   0.00000   0.00000   0.00000
           X3           0.00000   0.00000   0.00000   0.00000   0.00000
           Y3           0.00000   0.00000   0.00000   0.00000   0.00000
           Z3           0.00000   0.00000   0.00000   0.00000   0.00000
                          Z2        X3        Y3        Z3
           Z2           1.00000
           X3           0.00000   1.00000
           Y3           0.00000   0.00000   1.00000
           Z3           0.00000   0.00000   0.00000   1.00000
 ITU=  0
     Eigenvalues ---    1.00000   1.00000   1.00000   1.00000   1.00000
     Eigenvalues ---    1.00000   1.00000   1.00000   1.00000
 Angle between quadratic step and forces=   0.00 degrees.
 ClnCor:  largest displacement from symmetrization is 1.45D-16 for atom     1.
 Linear search not attempted -- first point.
 ClnCor:  largest displacement from symmetrization is 1.78D-15 for atom     1.
 B after Tr=    -0.000001    0.000000    0.000000
         Rot=    1.000000    0.000000    0.000000    0.000000 Ang=   0.00 deg.
 Variable       Old X    -DE/DX   Delta X   Delta X   Delta X     New X
                                 (Linear)    (Quad)   (Total)
    X1        9.51033  -0.06572   0.00000  -0.06572  -0.06572   9.44461
    Y1       36.82906   0.02872   0.00000   0.02872   0.02872  36.85778
    Z1       15.11913   0.01778   0.00000   0.01778   0.01778  15.13691
    X2        6.74141   0.04128   0.00000   0.04128   0.04128   6.78269
    Y2       37.95213  -0.00309   0.00000  -0.00309  -0.00309  37.94904
    Z2       15.67386   0.02223   0.00000   0.02223   0.02223  15.69609
    X3        5.29843   0.02443   0.00000   0.02443   0.02443   5.32287
    Y3       39.69993  -0.02563   0.00000  -0.02563  -0.02563  39.67430
    Z3       18.55887  -0.04000   0.00000  -0.04000  -0.04000  18.51886
         Item               Value     Threshold  Converged?
 Maximum Force            0.065716     0.000450     NO 
 RMS     Force            0.034192     0.000300     NO 
 Maximum Displacement     0.065716     0.001800     NO 
 RMS     Displacement     0.034192     0.001200     NO 
 Predicted change in Energy=-5.260848D-03
 GradGradGradGradGradGradGradGradGradGradGradGradGradGradGradGradGradGrad

 1\1\GINC-H08R06\Force\UB3LYP\3-21G*\C1H2(3)\ACKGYDJ0BD\09-Jul-2026\0\\
 #force b3lyp/3-21G* Geom=PrintInputOrient\\Generated by MDDatasetMaker
  (Author: Jinzhe Zeng)\\0,3\H,5.03265,19.4891,8.0007\C,3.5674,20.0834,
 8.29425\H,2.80381,21.0083,9.82093\\Version=EM64L-G16RevB.01\State=3-A"
 \HF=-38.7540692\S2=2.036689\S2-1=0.\S2A=2.000045\RMSD=3.040e-09\RMSF=3
 .419e-02\Dipole=0.1392572,0.0019047,0.1024772\Quadrupole=0.1359271,-0.
 4850562,0.3491291,-0.5358699,-0.4104009,0.7242746\PG=CS [SG(C1H2)]\\@


 IF OTHER PEOPLE ARE GOING TO TALK, CONVERSATION IS SIMPLY IMPOSSIBLE.

                                               -- WHISTLER'S PRINCIPLE
 Job cpu time:       0 days  0 hours  2 minutes 51.0 seconds.
 Elapsed time:       0 days  0 hours  0 minutes  3.6 seconds.
 File lengths (MBytes):  RWF=      6 Int=      0 D2E=      0 Chk=      1 Scr=      1
 Normal termination of Gaussian 16 at Thu Jul  9 10:25:36 2026.
