 Entering Gaussian System, Link 0=g16
 Input=loop1_O11_04.gjf
 Output=loop1_O11_04.log
 Initial command:
 /work/home/ackgydj0bd/apprepo/gaussian/16b.01-none_v1.3/app/g16/l1.exe "/work/home/ackgydj0bd/apprepo/gaussian/16b.01-none_v1.3/app/g16/scratch/Gau-38639.inp" -scrdir="/work/home/ackgydj0bd/apprepo/gaussian/16b.01-none_v1.3/app/g16/scratch/"
 Entering Link 1 = /work/home/ackgydj0bd/apprepo/gaussian/16b.01-none_v1.3/app/g16/l1.exe PID=     38640.
  
 Copyright (c) 1988-2017, Gaussian, Inc.  All Rights Reserved.
  
 This is part of the Gaussian(R) 16 program.  It is based on
 the Gaussian(R) 09 system (copyright 2009, Gaussian, Inc.),
 the Gaussian(R) 03 system (copyright 2003, Gaussian, Inc.),
 the Gaussian(R) 98 system (copyright 1998, Gaussian, Inc.),
 the Gaussian(R) 94 system (copyright 1995, Gaussian, Inc.),
 the Gaussian 92(TM) system (copyright 1992, Gaussian, Inc.),
 the Gaussian 90(TM) system (copyright 1990, Gaussian, Inc.),
 the Gaussian 88(TM) system (copyright 1988, Gaussian, Inc.),
 the Gaussian 86(TM) system (copyright 1986, Carnegie Mellon
 University), and the Gaussian 82(TM) system (copyright 1983,
 Carnegie Mellon University). Gaussian is a federally registered
 trademark of Gaussian, Inc.
  
 This software contains proprietary and confidential information,
 including trade secrets, belonging to Gaussian, Inc.
  
 This software is provided under written license and may be
 used, copied, transmitted, or stored only in accord with that
 written license.
  
 The following legend is applicable only to US Government
 contracts under FAR:
  
                    RESTRICTED RIGHTS LEGEND
  
 Use, reproduction and disclosure by the US Government is
 subject to restrictions as set forth in subparagraphs (a)
 and (c) of the Commercial Computer Software - Restricted
 Rights clause in FAR 52.227-19.
  
 Gaussian, Inc.
 340 Quinnipiac St., Bldg. 40, Wallingford CT 06492
  
  
 ---------------------------------------------------------------
 Warning -- This program may not be used in any manner that
 competes with the business of Gaussian, Inc. or will provide
 assistance to any competitor of Gaussian, Inc.  The licensee
 of this program is prohibited from giving any competitor of
 Gaussian, Inc. access to this program.  By using this program,
 the user acknowledges that Gaussian, Inc. is engaged in the
 business of creating and licensing software in the field of
 computational chemistry and represents and warrants to the
 licensee that it is not a competitor of Gaussian, Inc. and that
 it will not use this program in any manner prohibited above.
 ---------------------------------------------------------------
  

 Cite this work as:
 Gaussian 16, Revision B.01,
 M. J. Frisch, G. W. Trucks, H. B. Schlegel, G. E. Scuseria, 
 M. A. Robb, J. R. Cheeseman, G. Scalmani, V. Barone, 
 G. A. Petersson, H. Nakatsuji, X. Li, M. Caricato, A. V. Marenich, 
 J. Bloino, B. G. Janesko, R. Gomperts, B. Mennucci, H. P. Hratchian, 
 J. V. Ortiz, A. F. Izmaylov, J. L. Sonnenberg, D. Williams-Young, 
 F. Ding, F. Lipparini, F. Egidi, J. Goings, B. Peng, A. Petrone, 
 T. Henderson, D. Ranasinghe, V. G. Zakrzewski, J. Gao, N. Rega, 
 G. Zheng, W. Liang, M. Hada, M. Ehara, K. Toyota, R. Fukuda, 
 J. Hasegawa, M. Ishida, T. Nakajima, Y. Honda, O. Kitao, H. Nakai, 
 T. Vreven, K. Throssell, J. A. Montgomery, Jr., J. E. Peralta, 
 F. Ogliaro, M. J. Bearpark, J. J. Heyd, E. N. Brothers, K. N. Kudin, 
 V. N. Staroverov, T. A. Keith, R. Kobayashi, J. Normand, 
 K. Raghavachari, A. P. Rendell, J. C. Burant, S. S. Iyengar, 
 J. Tomasi, M. Cossi, J. M. Millam, M. Klene, C. Adamo, R. Cammi, 
 J. W. Ochterski, R. L. Martin, K. Morokuma, O. Farkas, 
 J. B. Foresman, and D. J. Fox, Gaussian, Inc., Wallingford CT, 2016.
 
 ******************************************
 Gaussian 16:  EM64L-G16RevB.01 20-Dec-2017
                 9-Jul-2026 
 ******************************************
 %nproc=64
 Will use up to   64 processors via shared memory.
 -----------------------------------------
 #force b3lyp/3-21G* Geom=PrintInputOrient
 -----------------------------------------
 1/10=7,30=1,38=1/1,3;
 2/9=2000,12=2,17=6,18=5,40=1/2;
 3/5=5,7=1,11=2,25=1,30=1,71=1,74=-5/1,2,3;
 4//1;
 5/5=2,38=5/2;
 6/7=2,8=2,9=2,10=2,28=1/1;
 7/29=1/1,2,3,16;
 1/10=7,30=1/3;
 99//99;
 -------------------------------------------------
 Generated by MDDatasetMaker (Author: Jinzhe Zeng)
 -------------------------------------------------
 Symbolic Z-matrix:
 Charge =  0 Multiplicity = 3
 H                     11.7371   1.55403   8.93911 
 O                     12.3531   1.3022    7.90543 
 C                     10.7717   0.76967   8.0567 
 H                     13.2613   2.0401    8.98316 
 

 GradGradGradGradGradGradGradGradGradGradGradGradGradGradGradGradGradGrad
 Berny optimization.
 Initialization pass.
 Trust Radius=3.00D-01 FncErr=1.00D-07 GrdErr=1.00D-07 EigMax=2.50D+02 EigMin=1.00D-04
 Number of steps in this run=      2 maximum allowed number of steps=      2.
 GradGradGradGradGradGradGradGradGradGradGradGradGradGradGradGradGradGrad

                          Input orientation:                          
 ---------------------------------------------------------------------
 Center     Atomic      Atomic             Coordinates (Angstroms)
 Number     Number       Type             X           Y           Z
 ---------------------------------------------------------------------
      1          1           0       11.737100    1.554030    8.939110
      2          8           0       12.353100    1.302200    7.905430
      3          6           0       10.771700    0.769670    8.056700
      4          1           0       13.261300    2.040100    8.983160
 ---------------------------------------------------------------------
                    Distance matrix (angstroms):
                    1          2          3          4
     1  H    0.000000
     2  O    1.229377   0.000000
     3  C    1.525079   1.675499   0.000000
     4  H    1.600434   1.590857   2.944559   0.000000
 Stoichiometry    CH2O(3)
 Framework group  C1[X(CH2O)]
 Deg. of freedom     6
 Full point group                 C1      NOp   1
 Largest Abelian subgroup         C1      NOp   1
 Largest concise Abelian subgroup C1      NOp   1
                         Standard orientation:                         
 ---------------------------------------------------------------------
 Center     Atomic      Atomic             Coordinates (Angstroms)
 Number     Number       Type             X           Y           Z
 ---------------------------------------------------------------------
      1          1           0       -0.183456    0.912095    0.044482
      2          8           0       -0.565250   -0.255796    0.004092
      3          6           0        1.080222    0.059811   -0.006446
      4          1           0       -1.775880    0.775409   -0.038541
 ---------------------------------------------------------------------
 Rotational constants (GHZ):         218.8250762          22.6236253          20.5105913
 Standard basis: 3-21G* (6D, 7F)
 There are    22 symmetry adapted cartesian basis functions of A   symmetry.
 There are    22 symmetry adapted basis functions of A   symmetry.
    22 basis functions,    36 primitive gaussians,    22 cartesian basis functions
     9 alpha electrons        7 beta electrons
       nuclear repulsion energy        24.7554327552 Hartrees.
 NAtoms=    4 NActive=    4 NUniq=    4 SFac= 1.00D+00 NAtFMM=   60 NAOKFM=F Big=F
 Integral buffers will be    131072 words long.
 Raffenetti 2 integral format.
 Two-electron integral symmetry is turned on.
 One-electron integrals computed using PRISM.
 PrsmSu:  requested number of processors reduced to:  31 ShMem   1 Linda.
 NBasis=    22 RedAO= T EigKep=  8.38D-02  NBF=    22
 NBsUse=    22 1.00D-06 EigRej= -1.00D+00 NBFU=    22
 ExpMin= 1.83D-01 ExpMax= 3.22D+02 ExpMxC= 3.22D+02 IAcc=3 IRadAn=         5 AccDes= 0.00D+00
 Harris functional with IExCor=  402 and IRadAn=       5 diagonalized for initial guess.
 HarFok:  IExCor=  402 AccDes= 0.00D+00 IRadAn=         5 IDoV= 1 UseB2=F ITyADJ=14
 ICtDFT=  3500011 ScaDFX=  1.000000  1.000000  1.000000  1.000000
 FoFCou: FMM=F IPFlag=           0 FMFlag=      100000 FMFlg1=           0
         NFxFlg=           0 DoJE=T BraDBF=F KetDBF=T FulRan=T
         wScrn=  0.000000 ICntrl=       500 IOpCl=  0 I1Cent=   200000004 NGrid=           0
         NMat0=    1 NMatS0=      1 NMatT0=    0 NMatD0=    1 NMtDS0=    0 NMtDT0=    0
 Petite list used in FoFCou.
 Initial guess <Sx>= 0.0000 <Sy>= 0.0000 <Sz>= 1.0000 <S**2>= 2.0000 S= 1.0000
 Keep R1 and R2 ints in memory in canonical form, NReq=55306382.
 Requested convergence on RMS density matrix=1.00D-08 within 128 cycles.
 Requested convergence on MAX density matrix=1.00D-06.
 Requested convergence on             energy=1.00D-06.
 No special actions if energy rises.
 Integral accuracy reduced to 1.0D-05 until final iterations.
 Initial convergence to 1.0D-05 achieved.  Increase integral accuracy.
 SCF Done:  E(UB3LYP) =  -113.531036222     A.U. after   30 cycles
            NFock= 30  Conv=0.61D-08     -V/T= 2.0105
 <Sx>= 0.0000 <Sy>= 0.0000 <Sz>= 1.0000 <S**2>= 2.0490 S= 1.0162
 <L.S>= 0.000000000000E+00
 Annihilation of the first spin contaminant:
 S**2 before annihilation     2.0490,   after     2.0007

 **********************************************************************

            Population analysis using the SCF Density.

 **********************************************************************

 Orbital symmetries:
 Alpha Orbitals:
       Occupied  (A) (A) (A) (A) (A) (A) (A) (A) (A)
       Virtual   (A) (A) (A) (A) (A) (A) (A) (A) (A) (A) (A) (A)
                 (A)
 Beta  Orbitals:
       Occupied  (A) (A) (A) (A) (A) (A) (A)
       Virtual   (A) (A) (A) (A) (A) (A) (A) (A) (A) (A) (A) (A)
                 (A) (A) (A)
 The electronic state is 3-A.
 Alpha  occ. eigenvalues --  -19.13101 -10.26422  -1.01739  -0.60770  -0.49045
 Alpha  occ. eigenvalues --   -0.38972  -0.35523  -0.25910  -0.21606
 Alpha virt. eigenvalues --   -0.13852   0.01474   0.04019   0.67899   0.68794
 Alpha virt. eigenvalues --    0.71827   0.85071   0.87479   1.16795   1.40426
 Alpha virt. eigenvalues --    1.57775   1.61082   2.55997
  Beta  occ. eigenvalues --  -19.12423 -10.24759  -1.00040  -0.55608  -0.45328
  Beta  occ. eigenvalues --   -0.35009  -0.34627
  Beta virt. eigenvalues --   -0.11078  -0.08519  -0.06019   0.06036   0.06355
  Beta virt. eigenvalues --    0.71511   0.72461   0.76578   0.85348   0.98798
  Beta virt. eigenvalues --    1.20793   1.40615   1.60622   1.62091   2.57337
          Condensed to atoms (all electrons):
               1          2          3          4
     1  H    0.524614   0.116458   0.029638   0.015847
     2  O    0.116458   8.174697   0.079265  -0.032124
     3  C    0.029638   0.079265   5.884780   0.001065
     4  H    0.015847  -0.032124   0.001065   0.995609
          Atomic-Atomic Spin Densities.
               1          2          3          4
     1  H   -0.074314  -0.012525   0.036540  -0.012748
     2  O   -0.012525   0.364386  -0.073197  -0.128035
     3  C    0.036540  -0.073197   1.213224   0.008013
     4  H   -0.012748  -0.128035   0.008013   0.860607
 Mulliken charges and spin densities:
               1          2
     1  H    0.313443  -0.063046
     2  O   -0.338296   0.150630
     3  C    0.005252   1.184580
     4  H    0.019601   0.727837
 Sum of Mulliken charges =   0.00000   2.00000
 Mulliken charges and spin densities with hydrogens summed into heavy atoms:
               1          2
     2  O   -0.005252   0.815420
     3  C    0.005252   1.184580
 Electronic spatial extent (au):  <R**2>=             82.4268
 Charge=              0.0000 electrons
 Dipole moment (field-independent basis, Debye):
    X=             -0.1593    Y=              1.3578    Z=              0.0737  Tot=              1.3691
 Quadrupole moment (field-independent basis, Debye-Ang):
   XX=            -14.9269   YY=            -12.1080   ZZ=            -13.0966
   XY=             -0.7965   XZ=              0.3221   YZ=             -0.3313
 Traceless Quadrupole moment (field-independent basis, Debye-Ang):
   XX=             -1.5497   YY=              1.2692   ZZ=              0.2805
   XY=             -0.7965   XZ=              0.3221   YZ=             -0.3313
 Octapole moment (field-independent basis, Debye-Ang**2):
  XXX=             -5.8045  YYY=             -1.3226  ZZZ=              0.1083  XYY=             -1.9345
  XXY=             -1.1078  XXZ=              0.7773  XZZ=             -1.1323  YZZ=             -0.6431
  YYZ=              0.0641  XYZ=             -0.3595
 Hexadecapole moment (field-independent basis, Debye-Ang**3):
 XXXX=            -90.2643 YYYY=            -20.1188 ZZZZ=            -10.9689 XXXY=              1.5918
 XXXZ=              1.2959 YYYX=              1.5562 YYYZ=             -0.2131 ZZZX=              0.1413
 ZZZY=             -0.2475 XXYY=            -18.5972 XXZZ=            -16.3515 YYZZ=             -5.4052
 XXYZ=             -0.4624 YYXZ=             -0.0420 ZZXY=              0.5733
 N-N= 2.475543275524D+01 E-N=-3.157701735239D+02  KE= 1.123532437331D+02
                          Isotropic Fermi Contact Couplings
        Atom                 a.u.       MegaHertz       Gauss      10(-4) cm-1
     1  H(1)              -0.02147     -47.98465     -17.12212     -16.00596
     2  O(17)              0.28996     -87.88651     -31.36009     -29.31578
     3  C(13)              0.06093      34.24984      12.22119      11.42452
     4  H(1)               0.19653     439.22293     156.72566     146.50900
 --------------------------------------------------------
       Center         ----  Spin Dipole Couplings  ----
                      3XX-RR        3YY-RR        3ZZ-RR
 --------------------------------------------------------
     1   Atom        0.086991     -0.003383     -0.083609
     2   Atom       -0.523124      1.043702     -0.520577
     3   Atom       -0.509068      0.546847     -0.037779
     4   Atom        0.002046     -0.005937      0.003891
 --------------------------------------------------------
                        XY            XZ            YZ
 --------------------------------------------------------
     1   Atom       -0.016010      0.005070     -0.005230
     2   Atom        0.126000     -0.387500      0.935758
     3   Atom       -0.104728     -0.390681      0.376426
     4   Atom        0.006491      0.000524     -0.000023
 --------------------------------------------------------


 ---------------------------------------------------------------------------------
              Anisotropic Spin Dipole Couplings in Principal Axis System
 ---------------------------------------------------------------------------------

       Atom             a.u.   MegaHertz   Gauss  10(-4) cm-1        Axes

              Baa    -0.0840   -44.842   -16.001   -14.958 -0.0240  0.0599  0.9979
     1 H(1)   Bbb    -0.0059    -3.147    -1.123    -1.050  0.1725  0.9835 -0.0549
              Bcc     0.0899    47.989    17.124    16.008  0.9847 -0.1708  0.0339
 
              Baa    -1.2000    86.829    30.983    28.963  0.5134 -0.3547  0.7814
     2 O(17)  Bbb    -0.2825    20.439     7.293     6.818  0.8578  0.2395 -0.4549
              Bcc     1.4824  -107.268   -38.276   -35.781 -0.0258  0.9038  0.4272
 
              Baa    -0.7375   -98.963   -35.313   -33.011  0.8505 -0.0829  0.5195
     3 C(13)  Bbb    -0.0522    -7.005    -2.500    -2.337 -0.4802 -0.5253  0.7024
              Bcc     0.7897   105.968    37.812    35.347 -0.2147  0.8468  0.4866
 
              Baa    -0.0096    -5.107    -1.822    -1.703 -0.4884  0.8724  0.0205
     4 H(1)   Bbb     0.0038     2.023     0.722     0.675 -0.1914 -0.1300  0.9729
              Bcc     0.0058     3.084     1.100     1.029  0.8514  0.4712  0.2305
 

 ---------------------------------------------------------------------------------

 PrsmSu:  requested number of processors reduced to:  31 ShMem   1 Linda.
 Calling FoFJK, ICntrl=      2127 FMM=F ISym2X=0 I1Cent= 0 IOpClX= 1 NMat=1 NMatS=1 NMatT=0.
 ***** Axes restored to original set *****
 -------------------------------------------------------------------
 Center     Atomic                   Forces (Hartrees/Bohr)
 Number     Number              X              Y              Z
 -------------------------------------------------------------------
      1        1           0.018591575    0.001151669   -0.033836925
      2        8          -0.087661644   -0.007172226    0.041190833
      3        6           0.055551803    0.007906890   -0.011256906
      4        1           0.013518267   -0.001886333    0.003902998
 -------------------------------------------------------------------
 Cartesian Forces:  Max     0.087661644 RMS     0.034642670

 GradGradGradGradGradGradGradGradGradGradGradGradGradGradGradGradGradGrad
 Berny optimization.
 Search for a local minimum.
 Step number   1 out of a maximum of    2
 All quantities printed in internal units (Hartrees-Bohrs-Radians)
 Second derivative matrix not updated -- first step.
 The second derivative matrix:
                          X1        Y1        Z1        X2        Y2
           X1           0.07588
           Y1          -0.01192   0.01623
           Z1          -0.08679   0.04410   0.16393
           X2          -0.07677   0.01139   0.08639   0.24905
           Y2           0.01906  -0.01198  -0.04088   0.03883   0.02985
           Z2           0.10267  -0.03466  -0.15677  -0.11940   0.03188
           X3           0.00089   0.00053   0.00040  -0.17228  -0.05790
           Y3          -0.00714  -0.00425  -0.00322  -0.05023  -0.01786
           Z3          -0.01588  -0.00944  -0.00716   0.03301   0.00900
           X4           0.00000   0.00000   0.00000   0.00000   0.00000
           Y4           0.00000   0.00000   0.00000   0.00000   0.00000
           Z4           0.00000   0.00000   0.00000   0.00000   0.00000
                          Z2        X3        Y3        Z3        X4
           Z2           0.16441
           X3           0.01673   0.27529
           Y3           0.00279  -0.22406   0.78442
           Z3          -0.00764   0.10076  -0.31888   0.14856
           X4           0.00000   0.00000   0.00000   0.00000   1.00000
           Y4           0.00000   0.00000   0.00000   0.00000   0.00000
           Z4           0.00000   0.00000   0.00000   0.00000   0.00000
                          Y4        Z4
           Y4           1.00000
           Z4           0.00000   1.00000
 ITU=  0
     Eigenvalues ---    0.04673   0.27872   0.45032   0.47159   0.72487
     Eigenvalues ---    0.93806
 Angle between quadratic step and forces=  18.56 degrees.
 Linear search not attempted -- first point.
 B after Tr=    -0.045064   -0.026515    0.048976
         Rot=    0.999994   -0.002461   -0.001191   -0.002227 Ang=  -0.40 deg.
 Variable       Old X    -DE/DX   Delta X   Delta X   Delta X     New X
                                 (Linear)    (Quad)   (Total)
    X1       22.17990   0.01859   0.00000   0.06673   0.04849  22.22839
    Y1        2.93669   0.00115   0.00000   0.02836   0.01819   2.95488
    Z1       16.89247  -0.03384   0.00000  -0.04855  -0.03794  16.85453
    X2       23.34398  -0.08766   0.00000  -0.15597  -0.17629  23.16769
    Y2        2.46080  -0.00717   0.00000  -0.03434  -0.03114   2.42966
    Z2       14.93910   0.04119   0.00000   0.04018   0.04593  14.98503
    X3       20.35556   0.05555   0.00000   0.14430   0.12871  20.48427
    Y3        1.45447   0.00791   0.00000   0.03295   0.02312   1.47759
    Z3       15.22496  -0.01126   0.00000  -0.02857  -0.02108  15.20387
    X4       25.06023   0.01352   0.00000   0.02095  -0.00091  25.05932
    Y4        3.85523  -0.00189   0.00000  -0.01194  -0.01017   3.84506
    Z4       16.97571   0.00390   0.00000   0.00489   0.01310  16.98881
         Item               Value     Threshold  Converged?
 Maximum Force            0.087662     0.000450     NO 
 RMS     Force            0.034643     0.000300     NO 
 Maximum Displacement     0.176288     0.001800     NO 
 RMS     Displacement     0.068373     0.001200     NO 
 Predicted change in Energy=-1.379819D-02
 GradGradGradGradGradGradGradGradGradGradGradGradGradGradGradGradGradGrad

 1\1\GINC-H08R06\Force\UB3LYP\3-21G*\C1H2O1(3)\ACKGYDJ0BD\09-Jul-2026\0
 \\#force b3lyp/3-21G* Geom=PrintInputOrient\\Generated by MDDatasetMak
 er (Author: Jinzhe Zeng)\\0,3\H,11.7371,1.55403,8.93911\O,12.3531,1.30
 22,7.90543\C,10.7717,0.76967,8.0567\H,13.2613,2.0401,8.98316\\Version=
 EM64L-G16RevB.01\State=3-A\HF=-113.5310362\S2=2.049\S2-1=0.\S2A=2.0006
 67\RMSD=6.119e-09\RMSF=3.464e-02\Dipole=-0.0663683,0.2139019,0.4898814
 \Quadrupole=-1.0404353,-0.0676192,1.1080545,-0.4944171,0.3794567,0.231
 3407\PG=C01 [X(C1H2O1)]\\@


 SEEN ON A WALL AT THE UNIVERSITY OF ILLINOIS AT CHICAGO CIRCLE:

 TO DO IS TO BE  -- SOCRATES
 TO BE IS TO DO  -- SARTRE
 OO BE DO BE DO  -- SINATRA
 Job cpu time:       0 days  0 hours  2 minutes 35.2 seconds.
 Elapsed time:       0 days  0 hours  0 minutes  3.1 seconds.
 File lengths (MBytes):  RWF=      6 Int=      0 D2E=      0 Chk=      1 Scr=      1
 Normal termination of Gaussian 16 at Thu Jul  9 10:30:15 2026.
