 Entering Gaussian System, Link 0=g16
 Input=loop1_O11_05.gjf
 Output=loop1_O11_05.log
 Initial command:
 /work/home/ackgydj0bd/apprepo/gaussian/16b.01-none_v1.3/app/g16/l1.exe "/work/home/ackgydj0bd/apprepo/gaussian/16b.01-none_v1.3/app/g16/scratch/Gau-39654.inp" -scrdir="/work/home/ackgydj0bd/apprepo/gaussian/16b.01-none_v1.3/app/g16/scratch/"
 Entering Link 1 = /work/home/ackgydj0bd/apprepo/gaussian/16b.01-none_v1.3/app/g16/l1.exe PID=     39655.
  
 Copyright (c) 1988-2017, Gaussian, Inc.  All Rights Reserved.
  
 This is part of the Gaussian(R) 16 program.  It is based on
 the Gaussian(R) 09 system (copyright 2009, Gaussian, Inc.),
 the Gaussian(R) 03 system (copyright 2003, Gaussian, Inc.),
 the Gaussian(R) 98 system (copyright 1998, Gaussian, Inc.),
 the Gaussian(R) 94 system (copyright 1995, Gaussian, Inc.),
 the Gaussian 92(TM) system (copyright 1992, Gaussian, Inc.),
 the Gaussian 90(TM) system (copyright 1990, Gaussian, Inc.),
 the Gaussian 88(TM) system (copyright 1988, Gaussian, Inc.),
 the Gaussian 86(TM) system (copyright 1986, Carnegie Mellon
 University), and the Gaussian 82(TM) system (copyright 1983,
 Carnegie Mellon University). Gaussian is a federally registered
 trademark of Gaussian, Inc.
  
 This software contains proprietary and confidential information,
 including trade secrets, belonging to Gaussian, Inc.
  
 This software is provided under written license and may be
 used, copied, transmitted, or stored only in accord with that
 written license.
  
 The following legend is applicable only to US Government
 contracts under FAR:
  
                    RESTRICTED RIGHTS LEGEND
  
 Use, reproduction and disclosure by the US Government is
 subject to restrictions as set forth in subparagraphs (a)
 and (c) of the Commercial Computer Software - Restricted
 Rights clause in FAR 52.227-19.
  
 Gaussian, Inc.
 340 Quinnipiac St., Bldg. 40, Wallingford CT 06492
  
  
 ---------------------------------------------------------------
 Warning -- This program may not be used in any manner that
 competes with the business of Gaussian, Inc. or will provide
 assistance to any competitor of Gaussian, Inc.  The licensee
 of this program is prohibited from giving any competitor of
 Gaussian, Inc. access to this program.  By using this program,
 the user acknowledges that Gaussian, Inc. is engaged in the
 business of creating and licensing software in the field of
 computational chemistry and represents and warrants to the
 licensee that it is not a competitor of Gaussian, Inc. and that
 it will not use this program in any manner prohibited above.
 ---------------------------------------------------------------
  

 Cite this work as:
 Gaussian 16, Revision B.01,
 M. J. Frisch, G. W. Trucks, H. B. Schlegel, G. E. Scuseria, 
 M. A. Robb, J. R. Cheeseman, G. Scalmani, V. Barone, 
 G. A. Petersson, H. Nakatsuji, X. Li, M. Caricato, A. V. Marenich, 
 J. Bloino, B. G. Janesko, R. Gomperts, B. Mennucci, H. P. Hratchian, 
 J. V. Ortiz, A. F. Izmaylov, J. L. Sonnenberg, D. Williams-Young, 
 F. Ding, F. Lipparini, F. Egidi, J. Goings, B. Peng, A. Petrone, 
 T. Henderson, D. Ranasinghe, V. G. Zakrzewski, J. Gao, N. Rega, 
 G. Zheng, W. Liang, M. Hada, M. Ehara, K. Toyota, R. Fukuda, 
 J. Hasegawa, M. Ishida, T. Nakajima, Y. Honda, O. Kitao, H. Nakai, 
 T. Vreven, K. Throssell, J. A. Montgomery, Jr., J. E. Peralta, 
 F. Ogliaro, M. J. Bearpark, J. J. Heyd, E. N. Brothers, K. N. Kudin, 
 V. N. Staroverov, T. A. Keith, R. Kobayashi, J. Normand, 
 K. Raghavachari, A. P. Rendell, J. C. Burant, S. S. Iyengar, 
 J. Tomasi, M. Cossi, J. M. Millam, M. Klene, C. Adamo, R. Cammi, 
 J. W. Ochterski, R. L. Martin, K. Morokuma, O. Farkas, 
 J. B. Foresman, and D. J. Fox, Gaussian, Inc., Wallingford CT, 2016.
 
 ******************************************
 Gaussian 16:  EM64L-G16RevB.01 20-Dec-2017
                 9-Jul-2026 
 ******************************************
 %nproc=64
 Will use up to   64 processors via shared memory.
 -----------------------------------------
 #force b3lyp/3-21G* Geom=PrintInputOrient
 -----------------------------------------
 1/10=7,30=1,38=1/1,3;
 2/9=2000,12=2,17=6,18=5,40=1/2;
 3/5=5,7=1,11=2,25=1,30=1,71=1,74=-5/1,2,3;
 4//1;
 5/5=2,38=5/2;
 6/7=2,8=2,9=2,10=2,28=1/1;
 7/29=1/1,2,3,16;
 1/10=7,30=1/3;
 99//99;
 -------------------------------------------------
 Generated by MDDatasetMaker (Author: Jinzhe Zeng)
 -------------------------------------------------
 Symbolic Z-matrix:
 Charge =  0 Multiplicity = 1
 C                    -0.02113   10.5599   4.95653 
 O                     0.13264   11.7496   6.3504 
 O                     1.13483   11.2602   7.42389 
 O                     0.23164   9.40698   4.72945 
 

 GradGradGradGradGradGradGradGradGradGradGradGradGradGradGradGradGradGrad
 Berny optimization.
 Initialization pass.
 Trust Radius=3.00D-01 FncErr=1.00D-07 GrdErr=1.00D-07 EigMax=2.50D+02 EigMin=1.00D-04
 Number of steps in this run=      2 maximum allowed number of steps=      2.
 GradGradGradGradGradGradGradGradGradGradGradGradGradGradGradGradGradGrad

                          Input orientation:                          
 ---------------------------------------------------------------------
 Center     Atomic      Atomic             Coordinates (Angstroms)
 Number     Number       Type             X           Y           Z
 ---------------------------------------------------------------------
      1          6           0       -0.021130   10.559900    4.956530
      2          8           0        0.132640   11.749600    6.350400
      3          8           0        1.134830   11.260200    7.423890
      4          8           0        0.231640    9.406980    4.729450
 ---------------------------------------------------------------------
                    Distance matrix (angstroms):
                    1          2          3          4
     1  C    0.000000
     2  O    1.838996   0.000000
     3  O    2.813277   1.547992   0.000000
     4  O    1.201949   2.850465   3.392666   0.000000
 Stoichiometry    CO3
 Framework group  C1[X(CO3)]
 Deg. of freedom     6
 Full point group                 C1      NOp   1
 Largest Abelian subgroup         C1      NOp   1
 Largest concise Abelian subgroup C1      NOp   1
                         Standard orientation:                         
 ---------------------------------------------------------------------
 Center     Atomic      Atomic             Coordinates (Angstroms)
 Number     Number       Type             X           Y           Z
 ---------------------------------------------------------------------
      1          6           0        0.963681    0.464529    0.083332
      2          8           0       -0.854318    0.709897   -0.045431
      3          8           0       -1.627327   -0.629656    0.020383
      4          8           0        1.758884   -0.428637   -0.037451
 ---------------------------------------------------------------------
 Rotational constants (GHZ):          25.1735913           4.4020903           3.7549733
 Standard basis: 3-21G* (6D, 7F)
 There are    36 symmetry adapted cartesian basis functions of A   symmetry.
 There are    36 symmetry adapted basis functions of A   symmetry.
    36 basis functions,    60 primitive gaussians,    36 cartesian basis functions
    15 alpha electrons       15 beta electrons
       nuclear repulsion energy        87.7158180750 Hartrees.
 NAtoms=    4 NActive=    4 NUniq=    4 SFac= 1.00D+00 NAtFMM=   60 NAOKFM=F Big=F
 Integral buffers will be    131072 words long.
 Raffenetti 2 integral format.
 Two-electron integral symmetry is turned on.
 One-electron integrals computed using PRISM.
 PrsmSu:  requested number of processors reduced to:  31 ShMem   1 Linda.
 NBasis=    36 RedAO= T EigKep=  4.71D-02  NBF=    36
 NBsUse=    36 1.00D-06 EigRej= -1.00D+00 NBFU=    36
 ExpMin= 1.96D-01 ExpMax= 3.22D+02 ExpMxC= 3.22D+02 IAcc=3 IRadAn=         5 AccDes= 0.00D+00
 Harris functional with IExCor=  402 and IRadAn=       5 diagonalized for initial guess.
 HarFok:  IExCor=  402 AccDes= 0.00D+00 IRadAn=         5 IDoV= 1 UseB2=F ITyADJ=14
 ICtDFT=  3500011 ScaDFX=  1.000000  1.000000  1.000000  1.000000
 FoFCou: FMM=F IPFlag=           0 FMFlag=      100000 FMFlg1=           0
         NFxFlg=           0 DoJE=T BraDBF=F KetDBF=T FulRan=T
         wScrn=  0.000000 ICntrl=       500 IOpCl=  0 I1Cent=   200000004 NGrid=           0
         NMat0=    1 NMatS0=      1 NMatT0=    0 NMatD0=    1 NMtDS0=    0 NMtDT0=    0
 Petite list used in FoFCou.
 Keep R1 ints in memory in canonical form, NReq=55517783.
 Requested convergence on RMS density matrix=1.00D-08 within 128 cycles.
 Requested convergence on MAX density matrix=1.00D-06.
 Requested convergence on             energy=1.00D-06.
 No special actions if energy rises.
 Integral accuracy reduced to 1.0D-05 until final iterations.
 EnCoef did     2 forward-backward iterations
 EnCoef did   100 forward-backward iterations
 EnCoef did     2 forward-backward iterations
 Initial convergence to 1.0D-05 achieved.  Increase integral accuracy.
 SCF Done:  E(RB3LYP) =  -262.058876208     A.U. after   25 cycles
            NFock= 25  Conv=0.43D-09     -V/T= 2.0106

 **********************************************************************

            Population analysis using the SCF Density.

 **********************************************************************

 Orbital symmetries:
       Occupied  (A) (A) (A) (A) (A) (A) (A) (A) (A) (A) (A) (A)
                 (A) (A) (A)
       Virtual   (A) (A) (A) (A) (A) (A) (A) (A) (A) (A) (A) (A)
                 (A) (A) (A) (A) (A) (A) (A) (A) (A)
 The electronic state is 1-A.
 Alpha  occ. eigenvalues --  -19.18974 -19.18425 -19.12890 -10.32565  -1.18528
 Alpha  occ. eigenvalues --   -1.05774  -0.84244  -0.59243  -0.50234  -0.48526
 Alpha  occ. eigenvalues --   -0.47490  -0.41861  -0.38950  -0.31962  -0.26769
 Alpha virt. eigenvalues --   -0.19568  -0.07704  -0.03347  -0.02103   0.30442
 Alpha virt. eigenvalues --    0.64777   0.66521   0.74758   1.04970   1.30814
 Alpha virt. eigenvalues --    1.33763   1.40495   1.43801   1.45075   1.48041
 Alpha virt. eigenvalues --    1.53034   1.56331   1.66049   2.31650   2.81404
 Alpha virt. eigenvalues --    2.93647
          Condensed to atoms (all electrons):
               1          2          3          4
     1  C    5.112702   0.053321  -0.002877   0.384361
     2  O    0.053321   7.850839   0.157210  -0.004931
     3  O   -0.002877   0.157210   7.940738  -0.000385
     4  O    0.384361  -0.004931  -0.000385   7.922322
 Mulliken charges:
               1
     1  C    0.452492
     2  O   -0.056439
     3  O   -0.094686
     4  O   -0.301367
 Sum of Mulliken charges =   0.00000
 Mulliken charges with hydrogens summed into heavy atoms:
               1
     1  C    0.452492
     2  O   -0.056439
     3  O   -0.094686
     4  O   -0.301367
 Electronic spatial extent (au):  <R**2>=            287.6773
 Charge=              0.0000 electrons
 Dipole moment (field-independent basis, Debye):
    X=              1.2881    Y=              0.5060    Z=              0.0140  Tot=              1.3840
 Quadrupole moment (field-independent basis, Debye-Ang):
   XX=            -21.6432   YY=            -21.1154   ZZ=            -20.5058
   XY=              0.8548   XZ=              0.3579   YZ=             -0.3091
 Traceless Quadrupole moment (field-independent basis, Debye-Ang):
   XX=             -0.5551   YY=             -0.0272   ZZ=              0.5823
   XY=              0.8548   XZ=              0.3579   YZ=             -0.3091
 Octapole moment (field-independent basis, Debye-Ang**2):
  XXX=             -6.8603  YYY=             -3.1509  ZZZ=             -0.4459  XYY=             -1.7569
  XXY=              2.2776  XXZ=             -0.5703  XZZ=              0.0670  YZZ=             -0.8391
  YYZ=             -0.2956  XYZ=             -0.0338
 Hexadecapole moment (field-independent basis, Debye-Ang**3):
 XXXX=           -236.5831 YYYY=            -52.8194 ZZZZ=            -14.3388 XXXY=              1.8231
 XXXZ=              1.4445 YYYX=             -2.0162 YYYZ=             -0.7789 ZZZX=             -0.3041
 ZZZY=             -0.3233 XXYY=            -48.1055 XXZZ=            -42.0676 YYZZ=            -11.6575
 XXYZ=             -0.4077 YYXZ=             -0.1731 ZZXY=             -1.0588
 N-N= 8.771581807502D+01 E-N=-7.923254200479D+02  KE= 2.593031232124D+02
 PrsmSu:  requested number of processors reduced to:  31 ShMem   1 Linda.
 Calling FoFJK, ICntrl=      2127 FMM=F ISym2X=0 I1Cent= 0 IOpClX= 0 NMat=1 NMatS=1 NMatT=0.
 ***** Axes restored to original set *****
 -------------------------------------------------------------------
 Center     Atomic                   Forces (Hartrees/Bohr)
 Number     Number              X              Y              Z
 -------------------------------------------------------------------
      1        6           0.020323903   -0.070150281   -0.006120778
      2        8           0.063123793   -0.036356826    0.064165661
      3        8          -0.066378256    0.029842937   -0.074304670
      4        8          -0.017069440    0.076664170    0.016259787
 -------------------------------------------------------------------
 Cartesian Forces:  Max     0.076664170 RMS     0.051677082

 GradGradGradGradGradGradGradGradGradGradGradGradGradGradGradGradGradGrad
 Berny optimization.
 Search for a local minimum.
 Step number   1 out of a maximum of    2
 All quantities printed in internal units (Hartrees-Bohrs-Radians)
 Second derivative matrix not updated -- first step.
 The second derivative matrix:
                          X1        Y1        Z1        X2        Y2
           X1           0.04593
           Y1          -0.20949   0.95550
           Z1          -0.04126   0.18820   0.03707
           X2           0.00000   0.00000   0.00000   0.11662
           Y2           0.00000   0.00000   0.00000  -0.05695   0.02781
           Z2           0.00000   0.00000   0.00000   0.12491  -0.06100
           X3           0.00000   0.00000   0.00000  -0.11662   0.05695
           Y3           0.00000   0.00000   0.00000   0.05695  -0.02781
           Z3           0.00000   0.00000   0.00000  -0.12491   0.06100
           X4          -0.04593   0.20949   0.04126   0.00000   0.00000
           Y4           0.20949  -0.95550  -0.18820   0.00000   0.00000
           Z4           0.04126  -0.18820  -0.03707   0.00000   0.00000
                          Z2        X3        Y3        Z3        X4
           Z2           0.13380
           X3          -0.12491   0.11662
           Y3           0.06100  -0.05695   0.02781
           Z3          -0.13380   0.12491  -0.06100   0.13380
           X4           0.00000   0.00000   0.00000   0.00000   0.04593
           Y4           0.00000   0.00000   0.00000   0.00000  -0.20949
           Z4           0.00000   0.00000   0.00000   0.00000  -0.04126
                          Y4        Z4
           Y4           0.95550
           Z4           0.18820   0.03707
 ITU=  0
     Eigenvalues ---    0.00000   0.00000   0.00000   0.00000   0.55645
     Eigenvalues ---    2.06964
 Eigenvalue     1 is  -2.22D-16 should be greater than     0.000000 Eigenvector:
                          Z4        Y3        Z3        Y2        Z1
   1                    0.47326  -0.47001  -0.40738   0.40176  -0.30338
                          X2        X4        Z2        Y1        Y4
   1                   -0.21254   0.20665   0.19686   0.09385  -0.01303
 Eigenvalue     2 is  -1.11D-16 should be greater than     0.000000 Eigenvector:
                          X1        X2        X4        Z3        Y1
   1                    0.76377  -0.37291  -0.36701  -0.22454   0.16653
                          Y2        Z1        Z2        X3        Y3
   1                   -0.15082   0.13763   0.09986   0.07848   0.06196
 Eigenvalue     3 is   0.00D+00 Eigenvector:
                          Z2        Z1        Y2        Y4        Z4
   1                    0.47138  -0.46395   0.36797  -0.34247  -0.31134
                          Y1        Z3        Y3        X4        X3
   1                   -0.26267   0.24175   0.20198  -0.14729   0.12163
 Eigenvalue     4 is   1.78D-15 Eigenvector:
                          Z1        Y2        Z4        Y1        Z3
   1                    0.64260   0.52043  -0.35871  -0.28453  -0.19724
                          Y3        X3        Y4        X4        X1
   1                   -0.19034  -0.12760  -0.08367   0.07136   0.05476
 Quadratic step=1.394D+02 exceeds max=3.000D-01 adjusted using Lamda=-7.274D-02.
 Angle between NR and scaled steps=  50.28 degrees.
 Angle between quadratic step and forces=  41.65 degrees.
 Linear search not attempted -- first point.
 B after Tr=    -0.002574    0.001368   -0.006798
         Rot=    1.000000   -0.000082   -0.000183   -0.000093 Ang=  -0.03 deg.
 Variable       Old X    -DE/DX   Delta X   Delta X   Delta X     New X
                                 (Linear)    (Quad)   (Total)
    X1       -0.03993   0.02032   0.00000   0.06828   0.06547   0.02554
    Y1       19.95532  -0.07015   0.00000   0.00983   0.00964  19.96496
    Z1        9.36648  -0.00612   0.00000   0.11071   0.10719   9.47368
    X2        0.25065   0.06312   0.00000   0.07991   0.07764   0.32829
    Y2       22.20353  -0.03636   0.00000  -0.11327  -0.11382  22.08970
    Z2       12.00052   0.06417   0.00000   0.03910   0.03582  12.03634
    X3        2.14452  -0.06638   0.00000  -0.12072  -0.12218   2.02233
    Y3       21.27869   0.02984   0.00000   0.02500   0.02446  21.30315
    Z3       14.02912  -0.07430   0.00000  -0.17076  -0.17478  13.85433
    X4        0.43774  -0.01707   0.00000  -0.01831  -0.02092   0.41682
    Y4       17.77662   0.07666   0.00000   0.07976   0.07973  17.85634
    Z4        8.93737   0.01626   0.00000   0.03578   0.03177   8.96914
         Item               Value     Threshold  Converged?
 Maximum Force            0.076664     0.000450     NO 
 RMS     Force            0.051677     0.000300     NO 
 Maximum Displacement     0.174784     0.001800     NO 
 RMS     Displacement     0.086610     0.001200     NO 
 Predicted change in Energy=-2.335264D-02
 GradGradGradGradGradGradGradGradGradGradGradGradGradGradGradGradGradGrad

 1\1\GINC-H08R06\Force\RB3LYP\3-21G*\C1O3\ACKGYDJ0BD\09-Jul-2026\0\\#fo
 rce b3lyp/3-21G* Geom=PrintInputOrient\\Generated by MDDatasetMaker (A
 uthor: Jinzhe Zeng)\\0,1\C,-0.02113,10.5599,4.95653\O,0.13264,11.7496,
 6.3504\O,1.13483,11.2602,7.42389\O,0.23164,9.40698,4.72945\\Version=EM
 64L-G16RevB.01\State=1-A\HF=-262.0588762\RMSD=4.316e-10\RMSF=5.168e-02
 \Dipole=-0.2227018,-0.1503024,-0.4736007\Quadrupole=0.5191197,-0.86526
 45,0.3461448,-0.0237064,-0.0348625,-0.3685977\PG=C01 [X(C1O3)]\\@


 A SOLDIER'S LIFE IS A LIFE OF HONOR, BUT A DOG WOULD NOT LEAD IT.
 -- PRINCE RUPERT, FOUNDER OF THE HUDSON'S BAY COMPANY
 Job cpu time:       0 days  0 hours  2 minutes 43.1 seconds.
 Elapsed time:       0 days  0 hours  0 minutes  3.2 seconds.
 File lengths (MBytes):  RWF=      6 Int=      0 D2E=      0 Chk=      1 Scr=      1
 Normal termination of Gaussian 16 at Thu Jul  9 10:30:18 2026.
