 Entering Gaussian System, Link 0=g16
 Input=loop1_H1_07.gjf
 Output=loop1_H1_07.log
 Initial command:
 /work/home/ackgydj0bd/apprepo/gaussian/16b.01-none_v1.3/app/g16/l1.exe "/work/home/ackgydj0bd/apprepo/gaussian/16b.01-none_v1.3/app/g16/scratch/Gau-13272.inp" -scrdir="/work/home/ackgydj0bd/apprepo/gaussian/16b.01-none_v1.3/app/g16/scratch/"
 Entering Link 1 = /work/home/ackgydj0bd/apprepo/gaussian/16b.01-none_v1.3/app/g16/l1.exe PID=     13273.
  
 Copyright (c) 1988-2017, Gaussian, Inc.  All Rights Reserved.
  
 This is part of the Gaussian(R) 16 program.  It is based on
 the Gaussian(R) 09 system (copyright 2009, Gaussian, Inc.),
 the Gaussian(R) 03 system (copyright 2003, Gaussian, Inc.),
 the Gaussian(R) 98 system (copyright 1998, Gaussian, Inc.),
 the Gaussian(R) 94 system (copyright 1995, Gaussian, Inc.),
 the Gaussian 92(TM) system (copyright 1992, Gaussian, Inc.),
 the Gaussian 90(TM) system (copyright 1990, Gaussian, Inc.),
 the Gaussian 88(TM) system (copyright 1988, Gaussian, Inc.),
 the Gaussian 86(TM) system (copyright 1986, Carnegie Mellon
 University), and the Gaussian 82(TM) system (copyright 1983,
 Carnegie Mellon University). Gaussian is a federally registered
 trademark of Gaussian, Inc.
  
 This software contains proprietary and confidential information,
 including trade secrets, belonging to Gaussian, Inc.
  
 This software is provided under written license and may be
 used, copied, transmitted, or stored only in accord with that
 written license.
  
 The following legend is applicable only to US Government
 contracts under FAR:
  
                    RESTRICTED RIGHTS LEGEND
  
 Use, reproduction and disclosure by the US Government is
 subject to restrictions as set forth in subparagraphs (a)
 and (c) of the Commercial Computer Software - Restricted
 Rights clause in FAR 52.227-19.
  
 Gaussian, Inc.
 340 Quinnipiac St., Bldg. 40, Wallingford CT 06492
  
  
 ---------------------------------------------------------------
 Warning -- This program may not be used in any manner that
 competes with the business of Gaussian, Inc. or will provide
 assistance to any competitor of Gaussian, Inc.  The licensee
 of this program is prohibited from giving any competitor of
 Gaussian, Inc. access to this program.  By using this program,
 the user acknowledges that Gaussian, Inc. is engaged in the
 business of creating and licensing software in the field of
 computational chemistry and represents and warrants to the
 licensee that it is not a competitor of Gaussian, Inc. and that
 it will not use this program in any manner prohibited above.
 ---------------------------------------------------------------
  

 Cite this work as:
 Gaussian 16, Revision B.01,
 M. J. Frisch, G. W. Trucks, H. B. Schlegel, G. E. Scuseria, 
 M. A. Robb, J. R. Cheeseman, G. Scalmani, V. Barone, 
 G. A. Petersson, H. Nakatsuji, X. Li, M. Caricato, A. V. Marenich, 
 J. Bloino, B. G. Janesko, R. Gomperts, B. Mennucci, H. P. Hratchian, 
 J. V. Ortiz, A. F. Izmaylov, J. L. Sonnenberg, D. Williams-Young, 
 F. Ding, F. Lipparini, F. Egidi, J. Goings, B. Peng, A. Petrone, 
 T. Henderson, D. Ranasinghe, V. G. Zakrzewski, J. Gao, N. Rega, 
 G. Zheng, W. Liang, M. Hada, M. Ehara, K. Toyota, R. Fukuda, 
 J. Hasegawa, M. Ishida, T. Nakajima, Y. Honda, O. Kitao, H. Nakai, 
 T. Vreven, K. Throssell, J. A. Montgomery, Jr., J. E. Peralta, 
 F. Ogliaro, M. J. Bearpark, J. J. Heyd, E. N. Brothers, K. N. Kudin, 
 V. N. Staroverov, T. A. Keith, R. Kobayashi, J. Normand, 
 K. Raghavachari, A. P. Rendell, J. C. Burant, S. S. Iyengar, 
 J. Tomasi, M. Cossi, J. M. Millam, M. Klene, C. Adamo, R. Cammi, 
 J. W. Ochterski, R. L. Martin, K. Morokuma, O. Farkas, 
 J. B. Foresman, and D. J. Fox, Gaussian, Inc., Wallingford CT, 2016.
 
 ******************************************
 Gaussian 16:  EM64L-G16RevB.01 20-Dec-2017
                 9-Jul-2026 
 ******************************************
 %nproc=64
 Will use up to   64 processors via shared memory.
 -----------------------------------------
 #force b3lyp/3-21G* Geom=PrintInputOrient
 -----------------------------------------
 1/10=7,30=1,38=1/1,3;
 2/9=2000,12=2,17=6,18=5,40=1/2;
 3/5=5,7=1,11=2,25=1,30=1,71=1,74=-5/1,2,3;
 4//1;
 5/5=2,38=5/2;
 6/7=2,8=2,9=2,10=2,28=1/1;
 7/29=1/1,2,3,16;
 1/10=7,30=1/3;
 99//99;
 -------------------------------------------------
 Generated by MDDatasetMaker (Author: Jinzhe Zeng)
 -------------------------------------------------
 Symbolic Z-matrix:
 Charge =  0 Multiplicity = 1
 C                     4.26      18.094    3.39 
 H                     4.056     19.021    3.885 
 H                     5.17      17.678    3.771 
 H                     3.455     17.411    3.565 
 H                     4.359     18.266    2.338 
 

 GradGradGradGradGradGradGradGradGradGradGradGradGradGradGradGradGradGrad
 Berny optimization.
 Initialization pass.
 Trust Radius=3.00D-01 FncErr=1.00D-07 GrdErr=1.00D-07 EigMax=2.50D+02 EigMin=1.00D-04
 Number of steps in this run=      2 maximum allowed number of steps=      2.
 GradGradGradGradGradGradGradGradGradGradGradGradGradGradGradGradGradGrad

                          Input orientation:                          
 ---------------------------------------------------------------------
 Center     Atomic      Atomic             Coordinates (Angstroms)
 Number     Number       Type             X           Y           Z
 ---------------------------------------------------------------------
      1          6           0        4.260000   18.094000    3.390000
      2          1           0        4.056000   19.021000    3.885000
      3          1           0        5.170000   17.678000    3.771000
      4          1           0        3.455000   17.411000    3.565000
      5          1           0        4.359000   18.266000    2.338000
 ---------------------------------------------------------------------
                    Distance matrix (angstroms):
                    1          2          3          4          5
     1  C    0.000000
     2  H    1.070500   0.000000
     3  H    1.070662   1.748611   0.000000
     4  H    1.070112   1.748056   1.747842   0.000000
     5  H    1.070555   1.747868   1.748415   1.747504   0.000000
 Stoichiometry    CH4
 Framework group  C1[X(CH4)]
 Deg. of freedom     9
 Full point group                 C1      NOp   1
 Largest Abelian subgroup         C1      NOp   1
 Largest concise Abelian subgroup C1      NOp   1
                         Standard orientation:                         
 ---------------------------------------------------------------------
 Center     Atomic      Atomic             Coordinates (Angstroms)
 Number     Number       Type             X           Y           Z
 ---------------------------------------------------------------------
      1          6           0        0.000030    0.000076    0.000058
      2          1           0       -0.685633    0.807962    0.152231
      3          1           0        0.940831    0.387627   -0.333129
      4          1           0        0.138035   -0.529244    0.919794
      5          1           0       -0.393413   -0.666799   -0.739245
 ---------------------------------------------------------------------
 Rotational constants (GHZ):         164.1729762         164.1028243         164.0424834
 Standard basis: 3-21G* (6D, 7F)
 There are    17 symmetry adapted cartesian basis functions of A   symmetry.
 There are    17 symmetry adapted basis functions of A   symmetry.
    17 basis functions,    27 primitive gaussians,    17 cartesian basis functions
     5 alpha electrons        5 beta electrons
       nuclear repulsion energy        13.6806724640 Hartrees.
 NAtoms=    5 NActive=    5 NUniq=    5 SFac= 1.00D+00 NAtFMM=   60 NAOKFM=F Big=F
 Integral buffers will be    131072 words long.
 Raffenetti 2 integral format.
 Two-electron integral symmetry is turned on.
 One-electron integrals computed using PRISM.
 PrsmSu:  requested number of processors reduced to:  31 ShMem   1 Linda.
 NBasis=    17 RedAO= T EigKep=  3.17D-02  NBF=    17
 NBsUse=    17 1.00D-06 EigRej= -1.00D+00 NBFU=    17
 ExpMin= 1.83D-01 ExpMax= 1.72D+02 ExpMxC= 1.72D+02 IAcc=3 IRadAn=         5 AccDes= 0.00D+00
 Harris functional with IExCor=  402 and IRadAn=       5 diagonalized for initial guess.
 HarFok:  IExCor=  402 AccDes= 0.00D+00 IRadAn=         5 IDoV= 1 UseB2=F ITyADJ=14
 ICtDFT=  3500011 ScaDFX=  1.000000  1.000000  1.000000  1.000000
 FoFCou: FMM=F IPFlag=           0 FMFlag=      100000 FMFlg1=           0
         NFxFlg=           0 DoJE=T BraDBF=F KetDBF=T FulRan=T
         wScrn=  0.000000 ICntrl=       500 IOpCl=  0 I1Cent=   200000004 NGrid=           0
         NMat0=    1 NMatS0=      1 NMatT0=    0 NMatD0=    1 NMtDS0=    0 NMtDT0=    0
 Petite list used in FoFCou.
 Keep R1 ints in memory in canonical form, NReq=55236554.
 Requested convergence on RMS density matrix=1.00D-08 within 128 cycles.
 Requested convergence on MAX density matrix=1.00D-06.
 Requested convergence on             energy=1.00D-06.
 No special actions if energy rises.
 Integral accuracy reduced to 1.0D-05 until final iterations.
 Initial convergence to 1.0D-05 achieved.  Increase integral accuracy.
 SCF Done:  E(RB3LYP) =  -40.3002178358     A.U. after    8 cycles
            NFock=  8  Conv=0.80D-08     -V/T= 2.0076

 **********************************************************************

            Population analysis using the SCF Density.

 **********************************************************************

 Orbital symmetries:
       Occupied  (A) (A) (A) (A) (A)
       Virtual   (A) (A) (A) (A) (A) (A) (A) (A) (A) (A) (A) (A)
 The electronic state is 1-A.
 Alpha  occ. eigenvalues --  -10.09034  -0.69692  -0.39291  -0.39283  -0.39274
 Alpha virt. eigenvalues --    0.15257   0.20178   0.20180   0.20192   0.69618
 Alpha virt. eigenvalues --    0.69634   0.69648   1.05681   1.07445   1.07450
 Alpha virt. eigenvalues --    1.07476   1.70648
          Condensed to atoms (all electrons):
               1          2          3          4          5
     1  C    5.301509   0.370437   0.370434   0.370422   0.370381
     2  H    0.370437   0.513962  -0.026690  -0.026724  -0.026768
     3  H    0.370434  -0.026690   0.513992  -0.026760  -0.026709
     4  H    0.370422  -0.026724  -0.026760   0.513948  -0.026787
     5  H    0.370381  -0.026768  -0.026709  -0.026787   0.514117
 Mulliken charges:
               1
     1  C   -0.783183
     2  H    0.195782
     3  H    0.195732
     4  H    0.195902
     5  H    0.195766
 Sum of Mulliken charges =   0.00000
 Mulliken charges with hydrogens summed into heavy atoms:
               1
     1  C    0.000000
 Electronic spatial extent (au):  <R**2>=             34.6467
 Charge=              0.0000 electrons
 Dipole moment (field-independent basis, Debye):
    X=             -0.0002    Y=             -0.0006    Z=              0.0002  Tot=              0.0007
 Quadrupole moment (field-independent basis, Debye-Ang):
   XX=             -8.1936   YY=             -8.1953   ZZ=             -8.1966
   XY=             -0.0003   XZ=              0.0001   YZ=             -0.0005
 Traceless Quadrupole moment (field-independent basis, Debye-Ang):
   XX=              0.0016   YY=             -0.0001   ZZ=             -0.0014
   XY=             -0.0003   XZ=              0.0001   YZ=             -0.0005
 Octapole moment (field-independent basis, Debye-Ang**2):
  XXX=              0.3276  YYY=              0.1008  ZZZ=              0.2482  XYY=             -0.3211
  XXY=              0.4418  XXZ=             -0.2318  XZZ=             -0.0071  YZZ=             -0.5442
  YYZ=             -0.0152  XYZ=             -0.3385
 Hexadecapole moment (field-independent basis, Debye-Ang**3):
 XXXX=            -14.2785 YYYY=            -14.6003 ZZZZ=            -14.2714 XXXY=              0.1085
 XXXZ=             -0.2994 YYYX=             -0.2267 YYYZ=              0.1533 ZZZX=              0.2462
 ZZZY=             -0.1661 XXYY=             -4.5751 XXZZ=             -4.9009 YYZZ=             -4.5761
 XXYZ=              0.0110 YYXZ=              0.0534 ZZXY=              0.1170
 N-N= 1.368067246398D+01 E-N=-1.199996100253D+02  KE= 3.999666919831D+01
 PrsmSu:  requested number of processors reduced to:  31 ShMem   1 Linda.
 Calling FoFJK, ICntrl=      2127 FMM=F ISym2X=0 I1Cent= 0 IOpClX= 0 NMat=1 NMatS=1 NMatT=0.
 ***** Axes restored to original set *****
 -------------------------------------------------------------------
 Center     Atomic                   Forces (Hartrees/Bohr)
 Number     Number              X              Y              Z
 -------------------------------------------------------------------
      1        6           0.000261636    0.000117075   -0.000120963
      2        1          -0.003084125    0.014061366    0.007583640
      3        1           0.013744568   -0.006226087    0.005751123
      4        1          -0.012483443   -0.010553128    0.002760391
      5        1           0.001561364    0.002600774   -0.015974192
 -------------------------------------------------------------------
 Cartesian Forces:  Max     0.015974192 RMS     0.008425344

 GradGradGradGradGradGradGradGradGradGradGradGradGradGradGradGradGradGrad
 Berny optimization.
 Search for a local minimum.
 Step number   1 out of a maximum of    2
 All quantities printed in internal units (Hartrees-Bohrs-Radians)
 Second derivative matrix not updated -- first step.
 The second derivative matrix:
                          X1        Y1        Z1        X2        Y2
           X1           0.70744
           Y1           0.00012   0.70773
           Z1           0.00007   0.00000   0.70702
           X2          -0.09007   0.04826   0.02574   0.07046
           Y2           0.04823  -0.29856  -0.11704  -0.05159   0.29348
           Z2           0.02572  -0.11702  -0.14188  -0.02752   0.12516
           X3          -0.29038   0.09645  -0.08835   0.00336  -0.00029
           Y3           0.09647  -0.12353   0.04037   0.02568  -0.00312
           Z3          -0.08834   0.04035  -0.11636   0.02002  -0.00271
           X4          -0.24512  -0.14052   0.03602   0.01602   0.00674
           Y4          -0.14051  -0.19871   0.03055  -0.02361  -0.01003
           Z4           0.03599   0.03053  -0.08723  -0.01846  -0.00810
           X5          -0.08188  -0.00431   0.02653   0.00023  -0.00310
           Y5          -0.00431  -0.08693   0.04612   0.00125   0.01823
           Z5           0.02656   0.04614  -0.36156   0.00023   0.00269
                          Z2        X3        Y3        Z3        X4
           Z2           0.12593
           X3           0.00193   0.28474
           Y3           0.01643  -0.10316   0.10626
           Z3           0.01332   0.09449  -0.04318   0.09862
           X4          -0.00603  -0.01240  -0.02035   0.00740   0.23629
           Y4           0.00905   0.01242   0.02047  -0.00732   0.15027
           Z4           0.00757  -0.00857  -0.01374   0.00547  -0.03851
           X5           0.00590   0.01467   0.00135  -0.03357   0.00521
           Y5          -0.03362  -0.00542  -0.00008   0.01285   0.00385
           Z5          -0.00494   0.00050   0.00012  -0.00106   0.00112
                          Y4        Z4        X5        Y5        Z5
           Y4           0.18667
           Z4          -0.03268   0.06749
           X5           0.00143   0.02955   0.06176
           Y5           0.00160   0.02399   0.00463   0.06717
           Z5           0.00040   0.00670  -0.02840  -0.04934   0.36086
 ITU=  0
     Eigenvalues ---    0.11729   0.11732   0.14132   0.14138   0.14143
     Eigenvalues ---    0.37172   0.86812   0.86839   0.86909
 Angle between quadratic step and forces=   0.74 degrees.
 Linear search not attempted -- first point.
 B after Tr=    -0.000008   -0.000003   -0.000067
         Rot=    1.000000    0.000000    0.000000    0.000000 Ang=   0.00 deg.
 Variable       Old X    -DE/DX   Delta X   Delta X   Delta X     New X
                                 (Linear)    (Quad)   (Total)
    X1        8.05023   0.00026   0.00000  -0.00003  -0.00003   8.05020
    Y1       34.19270   0.00012   0.00000  -0.00001  -0.00001  34.19269
    Z1        6.40617  -0.00012   0.00000  -0.00023  -0.00030   6.40588
    X2        7.66473  -0.00308   0.00000  -0.00808  -0.00809   7.65664
    Y2       35.94448   0.01406   0.00000   0.03762   0.03762  35.98210
    Z2        7.34159   0.00758   0.00000   0.02066   0.02059   7.36218
    X3        9.76988   0.01374   0.00000   0.03709   0.03708   9.80697
    Y3       33.40658  -0.00623   0.00000  -0.01638  -0.01638  33.39019
    Z3        7.12616   0.00575   0.00000   0.01541   0.01534   7.14150
    X4        6.52900  -0.01248   0.00000  -0.03359  -0.03360   6.49540
    Y4       32.90202  -0.01055   0.00000  -0.02821  -0.02822  32.87380
    Z4        6.73687   0.00276   0.00000   0.00767   0.00760   6.74448
    X5        8.23732   0.00156   0.00000   0.00465   0.00464   8.24196
    Y5       34.51774   0.00260   0.00000   0.00700   0.00700  34.52474
    Z5        4.41818  -0.01597   0.00000  -0.04317  -0.04324   4.37494
         Item               Value     Threshold  Converged?
 Maximum Force            0.015974     0.000450     NO 
 RMS     Force            0.008425     0.000300     NO 
 Maximum Displacement     0.043237     0.001800     NO 
 RMS     Displacement     0.022666     0.001200     NO 
 Predicted change in Energy=-1.432150D-03
 GradGradGradGradGradGradGradGradGradGradGradGradGradGradGradGradGradGrad

 1\1\GINC-H08R06\Force\RB3LYP\3-21G*\C1H4\ACKGYDJ0BD\09-Jul-2026\0\\#fo
 rce b3lyp/3-21G* Geom=PrintInputOrient\\Generated by MDDatasetMaker (A
 uthor: Jinzhe Zeng)\\0,1\C,4.26,18.094,3.39\H,4.056,19.021,3.885\H,5.1
 7,17.678,3.771\H,3.455,17.411,3.565\H,4.359,18.266,2.338\\Version=EM64
 L-G16RevB.01\State=1-A\HF=-40.3002178\RMSD=7.993e-09\RMSF=8.425e-03\Di
 pole=-0.0001948,-0.0000867,-0.0001622\Quadrupole=-0.0002259,0.0008966,
 -0.0006707,-0.0005508,0.0006728,-0.0001031\PG=C01 [X(C1H4)]\\@


 KINETICS       FACT
 ---------  =  -------
 MECHANISM     FICTION
 Job cpu time:       0 days  0 hours  2 minutes 53.1 seconds.
 Elapsed time:       0 days  0 hours  0 minutes  3.6 seconds.
 File lengths (MBytes):  RWF=      6 Int=      0 D2E=      0 Chk=      1 Scr=      1
 Normal termination of Gaussian 16 at Thu Jul  9 10:28:39 2026.
