 Entering Gaussian System, Link 0=g16
 Input=loop1_H1_02.gjf
 Output=loop1_H1_02.log
 Initial command:
 /work/home/ackgydj0bd/apprepo/gaussian/16b.01-none_v1.3/app/g16/l1.exe "/work/home/ackgydj0bd/apprepo/gaussian/16b.01-none_v1.3/app/g16/scratch/Gau-8174.inp" -scrdir="/work/home/ackgydj0bd/apprepo/gaussian/16b.01-none_v1.3/app/g16/scratch/"
 Entering Link 1 = /work/home/ackgydj0bd/apprepo/gaussian/16b.01-none_v1.3/app/g16/l1.exe PID=      8175.
  
 Copyright (c) 1988-2017, Gaussian, Inc.  All Rights Reserved.
  
 This is part of the Gaussian(R) 16 program.  It is based on
 the Gaussian(R) 09 system (copyright 2009, Gaussian, Inc.),
 the Gaussian(R) 03 system (copyright 2003, Gaussian, Inc.),
 the Gaussian(R) 98 system (copyright 1998, Gaussian, Inc.),
 the Gaussian(R) 94 system (copyright 1995, Gaussian, Inc.),
 the Gaussian 92(TM) system (copyright 1992, Gaussian, Inc.),
 the Gaussian 90(TM) system (copyright 1990, Gaussian, Inc.),
 the Gaussian 88(TM) system (copyright 1988, Gaussian, Inc.),
 the Gaussian 86(TM) system (copyright 1986, Carnegie Mellon
 University), and the Gaussian 82(TM) system (copyright 1983,
 Carnegie Mellon University). Gaussian is a federally registered
 trademark of Gaussian, Inc.
  
 This software contains proprietary and confidential information,
 including trade secrets, belonging to Gaussian, Inc.
  
 This software is provided under written license and may be
 used, copied, transmitted, or stored only in accord with that
 written license.
  
 The following legend is applicable only to US Government
 contracts under FAR:
  
                    RESTRICTED RIGHTS LEGEND
  
 Use, reproduction and disclosure by the US Government is
 subject to restrictions as set forth in subparagraphs (a)
 and (c) of the Commercial Computer Software - Restricted
 Rights clause in FAR 52.227-19.
  
 Gaussian, Inc.
 340 Quinnipiac St., Bldg. 40, Wallingford CT 06492
  
  
 ---------------------------------------------------------------
 Warning -- This program may not be used in any manner that
 competes with the business of Gaussian, Inc. or will provide
 assistance to any competitor of Gaussian, Inc.  The licensee
 of this program is prohibited from giving any competitor of
 Gaussian, Inc. access to this program.  By using this program,
 the user acknowledges that Gaussian, Inc. is engaged in the
 business of creating and licensing software in the field of
 computational chemistry and represents and warrants to the
 licensee that it is not a competitor of Gaussian, Inc. and that
 it will not use this program in any manner prohibited above.
 ---------------------------------------------------------------
  

 Cite this work as:
 Gaussian 16, Revision B.01,
 M. J. Frisch, G. W. Trucks, H. B. Schlegel, G. E. Scuseria, 
 M. A. Robb, J. R. Cheeseman, G. Scalmani, V. Barone, 
 G. A. Petersson, H. Nakatsuji, X. Li, M. Caricato, A. V. Marenich, 
 J. Bloino, B. G. Janesko, R. Gomperts, B. Mennucci, H. P. Hratchian, 
 J. V. Ortiz, A. F. Izmaylov, J. L. Sonnenberg, D. Williams-Young, 
 F. Ding, F. Lipparini, F. Egidi, J. Goings, B. Peng, A. Petrone, 
 T. Henderson, D. Ranasinghe, V. G. Zakrzewski, J. Gao, N. Rega, 
 G. Zheng, W. Liang, M. Hada, M. Ehara, K. Toyota, R. Fukuda, 
 J. Hasegawa, M. Ishida, T. Nakajima, Y. Honda, O. Kitao, H. Nakai, 
 T. Vreven, K. Throssell, J. A. Montgomery, Jr., J. E. Peralta, 
 F. Ogliaro, M. J. Bearpark, J. J. Heyd, E. N. Brothers, K. N. Kudin, 
 V. N. Staroverov, T. A. Keith, R. Kobayashi, J. Normand, 
 K. Raghavachari, A. P. Rendell, J. C. Burant, S. S. Iyengar, 
 J. Tomasi, M. Cossi, J. M. Millam, M. Klene, C. Adamo, R. Cammi, 
 J. W. Ochterski, R. L. Martin, K. Morokuma, O. Farkas, 
 J. B. Foresman, and D. J. Fox, Gaussian, Inc., Wallingford CT, 2016.
 
 ******************************************
 Gaussian 16:  EM64L-G16RevB.01 20-Dec-2017
                 9-Jul-2026 
 ******************************************
 %nproc=64
 Will use up to   64 processors via shared memory.
 -----------------------------------------
 #force b3lyp/3-21G* Geom=PrintInputOrient
 -----------------------------------------
 1/10=7,30=1,38=1/1,3;
 2/9=2000,12=2,17=6,18=5,40=1/2;
 3/5=5,7=1,11=2,25=1,30=1,71=1,74=-5/1,2,3;
 4//1;
 5/5=2,38=5/2;
 6/7=2,8=2,9=2,10=2,28=1/1;
 7/29=1/1,2,3,16;
 1/10=7,30=1/3;
 99//99;
 -------------------------------------------------
 Generated by MDDatasetMaker (Author: Jinzhe Zeng)
 -------------------------------------------------
 Symbolic Z-matrix:
 Charge =  0 Multiplicity = 2
 H                     5.72885   18.8894   6.56262 
 C                     6.69541   17.1504   7.35529 
 H                     7.21244   17.7888   7.8663 
 H                     6.22418   18.0367   7.21658 
 

 GradGradGradGradGradGradGradGradGradGradGradGradGradGradGradGradGradGrad
 Berny optimization.
 Initialization pass.
 Trust Radius=3.00D-01 FncErr=1.00D-07 GrdErr=1.00D-07 EigMax=2.50D+02 EigMin=1.00D-04
 Number of steps in this run=      2 maximum allowed number of steps=      2.
 GradGradGradGradGradGradGradGradGradGradGradGradGradGradGradGradGradGrad

                          Input orientation:                          
 ---------------------------------------------------------------------
 Center     Atomic      Atomic             Coordinates (Angstroms)
 Number     Number       Type             X           Y           Z
 ---------------------------------------------------------------------
      1          1           0        5.728850   18.889400    6.562620
      2          6           0        6.695410   17.150400    7.355290
      3          1           0        7.212440   17.788800    7.866300
      4          1           0        6.224180   18.036700    7.216580
 ---------------------------------------------------------------------
                    Distance matrix (angstroms):
                    1          2          3          4
     1  H    0.000000
     2  C    2.141655   0.000000
     3  H    2.260960   0.967474   0.000000
     4  H    1.183264   1.013324   1.208407   0.000000
 Stoichiometry    CH3(2)
 Framework group  C1[X(CH3)]
 Deg. of freedom     6
 Full point group                 C1      NOp   1
 Largest Abelian subgroup         C1      NOp   1
 Largest concise Abelian subgroup C1      NOp   1
                         Standard orientation:                         
 ---------------------------------------------------------------------
 Center     Atomic      Atomic             Coordinates (Angstroms)
 Number     Number       Type             X           Y           Z
 ---------------------------------------------------------------------
      1          1           0       -1.786295   -0.051811   -0.065140
      2          6           0        0.352805   -0.139998   -0.008953
      3          1           0        0.297022    0.825738   -0.024678
      4          1           0       -0.627558    0.066064    0.143536
 ---------------------------------------------------------------------
 Rotational constants (GHZ):         560.4013179         102.3880047          87.3606162
 Standard basis: 3-21G* (6D, 7F)
 There are    15 symmetry adapted cartesian basis functions of A   symmetry.
 There are    15 symmetry adapted basis functions of A   symmetry.
    15 basis functions,    24 primitive gaussians,    15 cartesian basis functions
     5 alpha electrons        4 beta electrons
       nuclear repulsion energy         9.0168311758 Hartrees.
 NAtoms=    4 NActive=    4 NUniq=    4 SFac= 1.00D+00 NAtFMM=   60 NAOKFM=F Big=F
 Integral buffers will be    131072 words long.
 Raffenetti 2 integral format.
 Two-electron integral symmetry is turned on.
 One-electron integrals computed using PRISM.
 PrsmSu:  requested number of processors reduced to:  31 ShMem   1 Linda.
 NBasis=    15 RedAO= T EigKep=  2.34D-02  NBF=    15
 NBsUse=    15 1.00D-06 EigRej= -1.00D+00 NBFU=    15
 ExpMin= 1.83D-01 ExpMax= 1.72D+02 ExpMxC= 1.72D+02 IAcc=3 IRadAn=         5 AccDes= 0.00D+00
 Harris functional with IExCor=  402 and IRadAn=       5 diagonalized for initial guess.
 HarFok:  IExCor=  402 AccDes= 0.00D+00 IRadAn=         5 IDoV= 1 UseB2=F ITyADJ=14
 ICtDFT=  3500011 ScaDFX=  1.000000  1.000000  1.000000  1.000000
 FoFCou: FMM=F IPFlag=           0 FMFlag=      100000 FMFlg1=           0
         NFxFlg=           0 DoJE=T BraDBF=F KetDBF=T FulRan=T
         wScrn=  0.000000 ICntrl=       500 IOpCl=  0 I1Cent=   200000004 NGrid=           0
         NMat0=    1 NMatS0=      1 NMatT0=    0 NMatD0=    1 NMtDS0=    0 NMtDT0=    0
 Petite list used in FoFCou.
 Initial guess <Sx>= 0.0000 <Sy>= 0.0000 <Sz>= 0.5000 <S**2>= 0.7500 S= 0.5000
 Keep R1 and R2 ints in memory in canonical form, NReq=55229872.
 Requested convergence on RMS density matrix=1.00D-08 within 128 cycles.
 Requested convergence on MAX density matrix=1.00D-06.
 Requested convergence on             energy=1.00D-06.
 No special actions if energy rises.
 Integral accuracy reduced to 1.0D-05 until final iterations.
 Rare condition: small coef for last iteration:  0.000D+00
 Rare condition: small coef for last iteration:  0.000D+00
 Problem detected with inexpensive integrals.
 Switching to full accuracy and repeating last cycle.
 Rare condition: small coef for last iteration:  0.000D+00
 SCF Done:  E(UB3LYP) =  -39.3489461905     A.U. after   42 cycles
            NFock= 42  Conv=0.19D-08     -V/T= 1.9943
 <Sx>= 0.0000 <Sy>= 0.0000 <Sz>= 0.5000 <S**2>= 1.1370 S= 0.6777
 <L.S>= 0.000000000000E+00
 Annihilation of the first spin contaminant:
 S**2 before annihilation     1.1370,   after     0.7519

 **********************************************************************

            Population analysis using the SCF Density.

 **********************************************************************

 Orbital symmetries:
 Alpha Orbitals:
       Occupied  (A) (A) (A) (A) (A)
       Virtual   (A) (A) (A) (A) (A) (A) (A) (A) (A) (A)
 Beta  Orbitals:
       Occupied  (A) (A) (A) (A)
       Virtual   (A) (A) (A) (A) (A) (A) (A) (A) (A) (A) (A)
 The electronic state is 2-A.
 Alpha  occ. eigenvalues --  -10.16742  -0.77368  -0.43001  -0.29993  -0.25026
 Alpha virt. eigenvalues --   -0.11564   0.17904   0.26524   0.66038   0.70416
 Alpha virt. eigenvalues --    0.74589   0.85982   1.08526   1.11581   1.46219
  Beta  occ. eigenvalues --  -10.16237  -0.75827  -0.39605  -0.29005
  Beta virt. eigenvalues --   -0.10607  -0.08244   0.18336   0.28695   0.67091
  Beta virt. eigenvalues --    0.71485   0.75478   0.96469   1.09231   1.13578
  Beta virt. eigenvalues --    1.47450
          Condensed to atoms (all electrons):
               1          2          3          4
     1  H    1.012931  -0.089676   0.012351   0.061617
     2  C   -0.089676   5.990929   0.207178   0.154087
     3  H    0.012351   0.207178   0.748774  -0.136629
     4  H    0.061617   0.154087  -0.136629   0.829511
          Atomic-Atomic Spin Densities.
               1          2          3          4
     1  H    0.920892  -0.098942   0.021356  -0.060631
     2  C   -0.098942   0.369930  -0.041276   0.054674
     3  H    0.021356  -0.041276   0.017989   0.007273
     4  H   -0.060631   0.054674   0.007273  -0.073718
 Mulliken charges and spin densities:
               1          2
     1  H    0.002777   0.782674
     2  C   -0.262518   0.284385
     3  H    0.168326   0.005342
     4  H    0.091414  -0.072402
 Sum of Mulliken charges =   0.00000   1.00000
 Mulliken charges and spin densities with hydrogens summed into heavy atoms:
               1          2
     2  C    0.000000   1.000000
 Electronic spatial extent (au):  <R**2>=             38.5510
 Charge=              0.0000 electrons
 Dipole moment (field-independent basis, Debye):
    X=             -0.6333    Y=              1.3995    Z=              0.1589  Tot=              1.5443
 Quadrupole moment (field-independent basis, Debye-Ang):
   XX=             -9.7721   YY=             -9.0587   ZZ=             -7.7944
   XY=              0.3733   XZ=              0.3372   YZ=              0.1033
 Traceless Quadrupole moment (field-independent basis, Debye-Ang):
   XX=             -0.8970   YY=             -0.1836   ZZ=              1.0806
   XY=              0.3733   XZ=              0.3372   YZ=              0.1033
 Octapole moment (field-independent basis, Debye-Ang**2):
  XXX=              1.8146  YYY=              1.7912  ZZZ=              0.2495  XYY=             -0.1979
  XXY=              0.7152  XXZ=              0.4114  XZZ=              0.4474  YZZ=              0.4874
  YYZ=              0.1316  XYZ=             -0.0242
 Hexadecapole moment (field-independent basis, Debye-Ang**3):
 XXXX=            -42.1999 YYYY=            -13.1673 ZZZZ=             -7.2714 XXXY=              0.5038
 XXXZ=              0.1797 YYYX=              0.4224 YYYZ=              0.0857 ZZZX=              0.1389
 ZZZY=              0.0769 XXYY=             -9.0596 XXZZ=             -7.8266 YYZZ=             -3.4203
 XXYZ=             -0.0005 YYXZ=              0.0615 ZZXY=              0.1181
 N-N= 9.016831175786D+00 E-N=-1.090116563408D+02  KE= 3.957299339148D+01
                          Isotropic Fermi Contact Couplings
        Atom                 a.u.       MegaHertz       Gauss      10(-4) cm-1
     1  H(1)               0.20714     925.89230     330.38140     308.84443
     2  C(13)              0.04751      53.41148      19.05854      17.81615
     3  H(1)              -0.00387     -17.30355      -6.17434      -5.77184
     4  H(1)              -0.00471     -21.06011      -7.51477      -7.02490
 --------------------------------------------------------
       Center         ----  Spin Dipole Couplings  ----
                      3XX-RR        3YY-RR        3ZZ-RR
 --------------------------------------------------------
     1   Atom       -0.015358      0.007710      0.007648
     2   Atom       -0.019829     -0.168139      0.187968
     3   Atom       -0.015474      0.028283     -0.012809
     4   Atom        0.152394     -0.075463     -0.076932
 --------------------------------------------------------
                        XY            XZ            YZ
 --------------------------------------------------------
     1   Atom       -0.002302     -0.008160      0.001103
     2   Atom        0.165869     -0.685592      0.535642
     3   Atom        0.011112     -0.036560      0.013757
     4   Atom       -0.031596      0.021673      0.025764
 --------------------------------------------------------


 ---------------------------------------------------------------------------------
              Anisotropic Spin Dipole Couplings in Principal Axis System
 ---------------------------------------------------------------------------------

       Atom             a.u.   MegaHertz   Gauss  10(-4) cm-1        Axes

              Baa    -0.0181    -9.654    -3.445    -3.220  0.9517  0.0721  0.2986
     1 H(1)   Bbb     0.0069     3.696     1.319     1.233  0.0784  0.8829 -0.4630
              Bcc     0.0112     5.958     2.126     1.987 -0.2970  0.4641  0.8345
 
              Baa    -0.9281  -124.540   -44.439   -41.542  0.5635 -0.5546  0.6123
     2 C(13)  Bbb     0.0512     6.867     2.450     2.291  0.6260  0.7703  0.1215
              Bcc     0.8769   117.672    41.988    39.251 -0.5390  0.3149  0.7812
 
              Baa    -0.0545   -29.053   -10.367    -9.691  0.7001 -0.2076  0.6832
     3 H(1)   Bbb     0.0220    11.731     4.186     3.913  0.7141  0.2034 -0.6699
              Bcc     0.0325    17.321     6.181     5.778  0.0001  0.9568  0.2906
 
              Baa    -0.1074   -57.316   -20.452   -19.119  0.1436  0.7033 -0.6963
     4 H(1)   Bbb    -0.0507   -27.035    -9.647    -9.018  0.0327  0.6998  0.7136
              Bcc     0.1581    84.351    30.099    28.137  0.9891 -0.1253  0.0775
 

 ---------------------------------------------------------------------------------

 PrsmSu:  requested number of processors reduced to:  31 ShMem   1 Linda.
 Calling FoFJK, ICntrl=      2127 FMM=F ISym2X=0 I1Cent= 0 IOpClX= 1 NMat=1 NMatS=1 NMatT=0.
 ***** Axes restored to original set *****
 -------------------------------------------------------------------
 Center     Atomic                   Forces (Hartrees/Bohr)
 Number     Number              X              Y              Z
 -------------------------------------------------------------------
      1        1           0.002305717    0.010525954   -0.006141234
      2        6          -0.014493760   -0.140181700   -0.044080601
      3        1           0.123772079    0.056059002    0.095753230
      4        1          -0.111584036    0.073596743   -0.045531394
 -------------------------------------------------------------------
 Cartesian Forces:  Max     0.140181700 RMS     0.076119046

 GradGradGradGradGradGradGradGradGradGradGradGradGradGradGradGradGradGrad
 Berny optimization.
 Search for a local minimum.
 Step number   1 out of a maximum of    2
 All quantities printed in internal units (Hartrees-Bohrs-Radians)
 Second derivative matrix not updated -- first step.
 The second derivative matrix:
                          X1        Y1        Z1        X2        Y2
           X1           1.00000
           Y1           0.00000   1.00000
           Z1           0.00000   0.00000   1.00000
           X2           0.00000   0.00000   0.00000   0.25218
           Y2           0.00000   0.00000   0.00000   0.00658   0.64658
           Z2           0.00000   0.00000   0.00000   0.18135   0.14872
           X3           0.00000   0.00000   0.00000  -0.15325  -0.15547
           Y3           0.00000   0.00000   0.00000  -0.19086  -0.27521
           Z3           0.00000   0.00000   0.00000  -0.15183  -0.17220
           X4           0.00000   0.00000   0.00000  -0.09893   0.14889
           Y4           0.00000   0.00000   0.00000   0.18427  -0.37137
           Z4           0.00000   0.00000   0.00000  -0.02952   0.02348
                          Z2        X3        Y3        Z3        X4
           Z2           0.16249
           X3          -0.14394   0.17249
           Y3          -0.19744   0.16830   0.26018
           Z3          -0.14666   0.16053   0.17801   0.15416
           X4          -0.03740  -0.01925   0.02256  -0.00871   0.11818
           Y4           0.04872  -0.01283   0.01504  -0.00580  -0.17144
           Z4          -0.01583  -0.01659   0.01944  -0.00750   0.04611
                          Y4        Z4
           Y4           0.35633
           Z4          -0.04292   0.02333
 ITU=  0
     Eigenvalues ---    0.11416   0.16685   0.26861   0.70565   0.90436
     Eigenvalues ---    1.03892
 Quadratic step=1.057D+00 exceeds max=3.000D-01 adjusted using Lamda=-3.559D-01.
 Angle between NR and scaled steps=  20.98 degrees.
 Angle between quadratic step and forces=  32.98 degrees.
 Linear search not attempted -- first point.
 B after Tr=    -0.005659    0.042326   -0.129079
         Rot=    0.999998   -0.001724    0.000353    0.000223 Ang=  -0.20 deg.
 Variable       Old X    -DE/DX   Delta X   Delta X   Delta X     New X
                                 (Linear)    (Quad)   (Total)
    X1       10.82596   0.00231   0.00000   0.00860   0.01010  10.83606
    Y1       35.69579   0.01053   0.00000   0.01367   0.00819  35.70399
    Z1       12.40155  -0.00614   0.00000  -0.00811  -0.00649  12.39506
    X2       12.65249  -0.01449   0.00000  -0.00057  -0.00161  12.65088
    Y2       32.40956  -0.14018   0.00000  -0.02927  -0.04070  32.36886
    Z2       13.89948  -0.04408   0.00000  -0.00950  -0.01809  13.88140
    X3       13.62954   0.12377   0.00000   0.17674   0.17548  13.80502
    Y3       33.61596   0.05606   0.00000   0.00538  -0.01034  33.60562
    Z3       14.86515   0.09575   0.00000   0.11733   0.11383  14.97898
    X4       11.76200  -0.11158   0.00000  -0.18395  -0.18397  11.57803
    Y4       34.08442   0.07360   0.00000   0.05265   0.04285  34.12727
    Z4       13.63736  -0.04553   0.00000  -0.08597  -0.08925  13.54811
         Item               Value     Threshold  Converged?
 Maximum Force            0.140182     0.000450     NO 
 RMS     Force            0.076119     0.000300     NO 
 Maximum Displacement     0.183970     0.001800     NO 
 RMS     Displacement     0.086459     0.001200     NO 
 Predicted change in Energy=-4.935939D-02
 GradGradGradGradGradGradGradGradGradGradGradGradGradGradGradGradGradGrad

 1\1\GINC-H08R06\Force\UB3LYP\3-21G*\C1H3(2)\ACKGYDJ0BD\09-Jul-2026\0\\
 #force b3lyp/3-21G* Geom=PrintInputOrient\\Generated by MDDatasetMaker
  (Author: Jinzhe Zeng)\\0,2\H,5.72885,18.8894,6.56262\C,6.69541,17.150
 4,7.35529\H,7.21244,17.7888,7.8663\H,6.22418,18.0367,7.21658\\Version=
 EM64L-G16RevB.01\State=2-A\HF=-39.3489462\S2=1.137045\S2-1=0.\S2A=0.75
 1901\RMSD=1.892e-09\RMSF=7.612e-02\Dipole=0.1397324,0.5297622,0.262661
 7\Quadrupole=0.0878,-0.7064338,0.6186339,0.3019531,-0.3990423,-0.07136
 27\PG=C01 [X(C1H3)]\\@


 CONTRAIWISE...CONTINUED TWEEDLEDEE, IF IT WAS SO, IT MIGHT BE,
 AND IF IT WERE SO, IT WOULD BE.....
 BUT AS IT ISN'T, IT AIN'T....
 THAT'S LOGIC.....
 ALICE THROUGH THE LOOKING GLASS
 Job cpu time:       0 days  0 hours  3 minutes 10.6 seconds.
 Elapsed time:       0 days  0 hours  0 minutes  3.8 seconds.
 File lengths (MBytes):  RWF=      6 Int=      0 D2E=      0 Chk=      1 Scr=      1
 Normal termination of Gaussian 16 at Thu Jul  9 10:28:20 2026.
