 Entering Gaussian System, Link 0=g16
 Input=loop1_C_03.gjf
 Output=loop1_C_03.log
 Initial command:
 /work/home/ackgydj0bd/apprepo/gaussian/16b.01-none_v1.3/app/g16/l1.exe "/work/home/ackgydj0bd/apprepo/gaussian/16b.01-none_v1.3/app/g16/scratch/Gau-224908.inp" -scrdir="/work/home/ackgydj0bd/apprepo/gaussian/16b.01-none_v1.3/app/g16/scratch/"
 Entering Link 1 = /work/home/ackgydj0bd/apprepo/gaussian/16b.01-none_v1.3/app/g16/l1.exe PID=    224909.
  
 Copyright (c) 1988-2017, Gaussian, Inc.  All Rights Reserved.
  
 This is part of the Gaussian(R) 16 program.  It is based on
 the Gaussian(R) 09 system (copyright 2009, Gaussian, Inc.),
 the Gaussian(R) 03 system (copyright 2003, Gaussian, Inc.),
 the Gaussian(R) 98 system (copyright 1998, Gaussian, Inc.),
 the Gaussian(R) 94 system (copyright 1995, Gaussian, Inc.),
 the Gaussian 92(TM) system (copyright 1992, Gaussian, Inc.),
 the Gaussian 90(TM) system (copyright 1990, Gaussian, Inc.),
 the Gaussian 88(TM) system (copyright 1988, Gaussian, Inc.),
 the Gaussian 86(TM) system (copyright 1986, Carnegie Mellon
 University), and the Gaussian 82(TM) system (copyright 1983,
 Carnegie Mellon University). Gaussian is a federally registered
 trademark of Gaussian, Inc.
  
 This software contains proprietary and confidential information,
 including trade secrets, belonging to Gaussian, Inc.
  
 This software is provided under written license and may be
 used, copied, transmitted, or stored only in accord with that
 written license.
  
 The following legend is applicable only to US Government
 contracts under FAR:
  
                    RESTRICTED RIGHTS LEGEND
  
 Use, reproduction and disclosure by the US Government is
 subject to restrictions as set forth in subparagraphs (a)
 and (c) of the Commercial Computer Software - Restricted
 Rights clause in FAR 52.227-19.
  
 Gaussian, Inc.
 340 Quinnipiac St., Bldg. 40, Wallingford CT 06492
  
  
 ---------------------------------------------------------------
 Warning -- This program may not be used in any manner that
 competes with the business of Gaussian, Inc. or will provide
 assistance to any competitor of Gaussian, Inc.  The licensee
 of this program is prohibited from giving any competitor of
 Gaussian, Inc. access to this program.  By using this program,
 the user acknowledges that Gaussian, Inc. is engaged in the
 business of creating and licensing software in the field of
 computational chemistry and represents and warrants to the
 licensee that it is not a competitor of Gaussian, Inc. and that
 it will not use this program in any manner prohibited above.
 ---------------------------------------------------------------
  

 Cite this work as:
 Gaussian 16, Revision B.01,
 M. J. Frisch, G. W. Trucks, H. B. Schlegel, G. E. Scuseria, 
 M. A. Robb, J. R. Cheeseman, G. Scalmani, V. Barone, 
 G. A. Petersson, H. Nakatsuji, X. Li, M. Caricato, A. V. Marenich, 
 J. Bloino, B. G. Janesko, R. Gomperts, B. Mennucci, H. P. Hratchian, 
 J. V. Ortiz, A. F. Izmaylov, J. L. Sonnenberg, D. Williams-Young, 
 F. Ding, F. Lipparini, F. Egidi, J. Goings, B. Peng, A. Petrone, 
 T. Henderson, D. Ranasinghe, V. G. Zakrzewski, J. Gao, N. Rega, 
 G. Zheng, W. Liang, M. Hada, M. Ehara, K. Toyota, R. Fukuda, 
 J. Hasegawa, M. Ishida, T. Nakajima, Y. Honda, O. Kitao, H. Nakai, 
 T. Vreven, K. Throssell, J. A. Montgomery, Jr., J. E. Peralta, 
 F. Ogliaro, M. J. Bearpark, J. J. Heyd, E. N. Brothers, K. N. Kudin, 
 V. N. Staroverov, T. A. Keith, R. Kobayashi, J. Normand, 
 K. Raghavachari, A. P. Rendell, J. C. Burant, S. S. Iyengar, 
 J. Tomasi, M. Cossi, J. M. Millam, M. Klene, C. Adamo, R. Cammi, 
 J. W. Ochterski, R. L. Martin, K. Morokuma, O. Farkas, 
 J. B. Foresman, and D. J. Fox, Gaussian, Inc., Wallingford CT, 2016.
 
 ******************************************
 Gaussian 16:  EM64L-G16RevB.01 20-Dec-2017
                 9-Jul-2026 
 ******************************************
 %nproc=64
 Will use up to   64 processors via shared memory.
 -----------------------------------------
 #force b3lyp/3-21G* Geom=PrintInputOrient
 -----------------------------------------
 1/10=7,30=1,38=1/1,3;
 2/9=2000,12=2,17=6,18=5,40=1/2;
 3/5=5,7=1,11=2,25=1,30=1,71=1,74=-5/1,2,3;
 4//1;
 5/5=2,38=5/2;
 6/7=2,8=2,9=2,10=2,28=1/1;
 7/29=1/1,2,3,16;
 1/10=7,30=1/3;
 99//99;
 -------------------------------------------------
 Generated by MDDatasetMaker (Author: Jinzhe Zeng)
 -------------------------------------------------
 Symbolic Z-matrix:
 Charge =  0 Multiplicity = 2
 H                    -0.7371    2.89794   10.5076 
 C                    -0.16918   3.99117   8.93218 
 

 GradGradGradGradGradGradGradGradGradGradGradGradGradGradGradGradGradGrad
 Berny optimization.
 Initialization pass.
 Trust Radius=3.00D-01 FncErr=1.00D-07 GrdErr=1.00D-07 EigMax=2.50D+02 EigMin=1.00D-04
 Number of steps in this run=      2 maximum allowed number of steps=      2.
 GradGradGradGradGradGradGradGradGradGradGradGradGradGradGradGradGradGrad

                          Input orientation:                          
 ---------------------------------------------------------------------
 Center     Atomic      Atomic             Coordinates (Angstroms)
 Number     Number       Type             X           Y           Z
 ---------------------------------------------------------------------
      1          1           0       -0.737100    2.897940   10.507600
      2          6           0       -0.169180    3.991170    8.932180
 ---------------------------------------------------------------------
 Stoichiometry    CH(2)
 Framework group  C*V[C*(HC)]
 Deg. of freedom     1
 Full point group                 C*V     NOp   4
 Largest Abelian subgroup         C2V     NOp   4
 Largest concise Abelian subgroup C1      NOp   1
                         Standard orientation:                         
 ---------------------------------------------------------------------
 Center     Atomic      Atomic             Coordinates (Angstroms)
 Number     Number       Type             X           Y           Z
 ---------------------------------------------------------------------
      1          1           0        0.000000    0.000000   -1.714207
      2          6           0        0.000000    0.000000    0.285701
 ---------------------------------------------------------------------
 Rotational constants (GHZ):           0.0000000         135.9049701         135.9049701
 Standard basis: 3-21G* (6D, 7F)
 There are     7 symmetry adapted cartesian basis functions of A1  symmetry.
 There are     0 symmetry adapted cartesian basis functions of A2  symmetry.
 There are     2 symmetry adapted cartesian basis functions of B1  symmetry.
 There are     2 symmetry adapted cartesian basis functions of B2  symmetry.
 There are     7 symmetry adapted basis functions of A1  symmetry.
 There are     0 symmetry adapted basis functions of A2  symmetry.
 There are     2 symmetry adapted basis functions of B1  symmetry.
 There are     2 symmetry adapted basis functions of B2  symmetry.
    11 basis functions,    18 primitive gaussians,    11 cartesian basis functions
     4 alpha electrons        3 beta electrons
       nuclear repulsion energy         1.5876044389 Hartrees.
 NAtoms=    2 NActive=    2 NUniq=    2 SFac= 1.00D+00 NAtFMM=   60 NAOKFM=F Big=F
 Integral buffers will be    131072 words long.
 Raffenetti 2 integral format.
 Two-electron integral symmetry is turned on.
 One-electron integrals computed using PRISM.
 PrsmSu:  requested number of processors reduced to:  31 ShMem   1 Linda.
 NBasis=    11 RedAO= T EigKep=  1.88D-01  NBF=     7     0     2     2
 NBsUse=    11 1.00D-06 EigRej= -1.00D+00 NBFU=     7     0     2     2
 ExpMin= 1.83D-01 ExpMax= 1.72D+02 ExpMxC= 1.72D+02 IAcc=3 IRadAn=         5 AccDes= 0.00D+00
 Harris functional with IExCor=  402 and IRadAn=       5 diagonalized for initial guess.
 HarFok:  IExCor=  402 AccDes= 0.00D+00 IRadAn=         5 IDoV= 1 UseB2=F ITyADJ=14
 ICtDFT=  3500011 ScaDFX=  1.000000  1.000000  1.000000  1.000000
 FoFCou: FMM=F IPFlag=           0 FMFlag=      100000 FMFlg1=           0
         NFxFlg=           0 DoJE=T BraDBF=F KetDBF=T FulRan=T
         wScrn=  0.000000 ICntrl=       500 IOpCl=  0 I1Cent=   200000004 NGrid=           0
         NMat0=    1 NMatS0=      1 NMatT0=    0 NMatD0=    1 NMtDS0=    0 NMtDT0=    0
 Petite list used in FoFCou.
 Initial guess orbital symmetries:
 Alpha Orbitals:
       Occupied  (SG) (SG) (SG) (PI)
       Virtual   (PI) (SG) (PI) (PI) (SG) (SG) (SG)
 Beta  Orbitals:
       Occupied  (SG) (SG) (SG)
       Virtual   (PI) (PI) (SG) (PI) (PI) (SG) (SG) (SG)
 Initial guess <Sx>= 0.0000 <Sy>= 0.0000 <Sz>= 0.5000 <S**2>= 0.7500 S= 0.5000
 Keep R1 and R2 ints in memory in symmetry-blocked form, NReq=55199367.
 Requested convergence on RMS density matrix=1.00D-08 within 128 cycles.
 Requested convergence on MAX density matrix=1.00D-06.
 Requested convergence on             energy=1.00D-06.
 No special actions if energy rises.
 Integral accuracy reduced to 1.0D-05 until final iterations.
 Rare condition: small coef for last iteration:  0.000D+00
 Rare condition: small coef for last iteration:  0.000D+00
 Problem detected with inexpensive integrals.
 Switching to full accuracy and repeating last cycle.
 Rare condition: small coef for last iteration:  0.000D+00
 Rare condition: small coef for last iteration:  0.000D+00
 Rare condition: small coef for last iteration:  0.000D+00
 Rare condition: small coef for last iteration:  0.000D+00
 Rare condition: small coef for last iteration:  0.000D+00
 Rare condition: small coef for last iteration:  0.000D+00
 Rare condition: small coef for last iteration:  0.000D+00
 Rare condition: small coef for last iteration:  0.000D+00
 Rare condition: small coef for last iteration:  0.000D+00
 Rare condition: small coef for last iteration:  0.000D+00
 Rare condition: small coef for last iteration:  0.000D+00
 Rare condition: small coef for last iteration:  0.000D+00
 Rare condition: small coef for last iteration:  0.000D+00
 Rare condition: small coef for last iteration:  0.000D+00
 Rare condition: small coef for last iteration:  0.000D+00
 Rare condition: small coef for last iteration:  0.000D+00
 Rare condition: small coef for last iteration:  0.000D+00
 Rare condition: small coef for last iteration:  0.000D+00
 Rare condition: small coef for last iteration:  0.000D+00
 Rare condition: small coef for last iteration:  0.000D+00
 Rare condition: small coef for last iteration:  0.000D+00
 Rare condition: small coef for last iteration:  0.000D+00
 Rare condition: small coef for last iteration:  0.000D+00
 Rare condition: small coef for last iteration:  0.000D+00
 Rare condition: small coef for last iteration:  0.000D+00
 Rare condition: small coef for last iteration:  0.000D+00
 Rare condition: small coef for last iteration:  0.000D+00
 Rare condition: small coef for last iteration:  0.000D+00
 Rare condition: small coef for last iteration:  0.000D+00
 Rare condition: small coef for last iteration:  0.000D+00
 Rare condition: small coef for last iteration:  0.000D+00
 Rare condition: small coef for last iteration:  0.000D+00
 Rare condition: small coef for last iteration:  0.000D+00
 Rare condition: small coef for last iteration:  0.000D+00
 Rare condition: small coef for last iteration:  0.000D+00
 Rare condition: small coef for last iteration:  0.000D+00
 Rare condition: small coef for last iteration:  0.000D+00
 Rare condition: small coef for last iteration:  0.000D+00
 Rare condition: small coef for last iteration:  0.000D+00
 Rare condition: small coef for last iteration:  0.000D+00
 Rare condition: small coef for last iteration:  0.000D+00
 >>>>>>>>>> Convergence criterion not met.
 SCF Done:  E(UB3LYP) =  -38.1698517688     A.U. after  129 cycles
            NFock=128  Conv=0.67D-04     -V/T= 2.0144
 <Sx>= 0.0000 <Sy>= 0.0000 <Sz>= 0.5000 <S**2>= 0.8699 S= 0.5582
 <L.S>= 0.000000000000E+00
 Annihilation of the first spin contaminant:
 S**2 before annihilation     0.8699,   after     0.7500

 **********************************************************************

            Population analysis using the SCF Density.

 **********************************************************************

 Orbital symmetries:
 Alpha Orbitals:
       Occupied  (SG) (SG) (SG) (PI)
       Virtual   (PI) (SG) (PI) (PI) (SG) (SG) (SG)
 Beta  Orbitals:
       Occupied  (SG) (SG) (SG)
       Virtual   (PI) (PI) (SG) (PI) (PI) (SG) (SG) (SG)
 Unable to determine electronic state:  partially filled degenerate orbitals.
 Alpha  occ. eigenvalues --  -10.28145  -0.57016  -0.28649  -0.26575
 Alpha virt. eigenvalues --   -0.14991  -0.07571   0.65326   0.68228   0.74563
 Alpha virt. eigenvalues --    0.92167   1.08987
  Beta  occ. eigenvalues --  -10.27235  -0.53264  -0.26551
  Beta virt. eigenvalues --   -0.13623  -0.08705  -0.05645   0.69052   0.73010
  Beta virt. eigenvalues --    0.73026   0.98440   1.11887
          Condensed to atoms (all electrons):
               1          2
     1  H    0.887519   0.165144
     2  C    0.165144   5.782193
          Atomic-Atomic Spin Densities.
               1          2
     1  H    0.372410  -0.025843
     2  C   -0.025843   0.679277
 Mulliken charges and spin densities:
               1          2
     1  H   -0.052663   0.346567
     2  C    0.052663   0.653433
 Sum of Mulliken charges =   0.00000   1.00000
 Mulliken charges and spin densities with hydrogens summed into heavy atoms:
               1          2
     2  C    0.000000   1.000000
 Electronic spatial extent (au):  <R**2>=             28.4012
 Charge=              0.0000 electrons
 Dipole moment (field-independent basis, Debye):
    X=              0.0000    Y=              0.0000    Z=              0.1868  Tot=              0.1868
 Quadrupole moment (field-independent basis, Debye-Ang):
   XX=             -5.9971   YY=             -7.7927   ZZ=             -7.9442
   XY=              0.0000   XZ=              0.0000   YZ=              0.0000
 Traceless Quadrupole moment (field-independent basis, Debye-Ang):
   XX=              1.2475   YY=             -0.5480   ZZ=             -0.6995
   XY=              0.0000   XZ=              0.0000   YZ=              0.0000
 Octapole moment (field-independent basis, Debye-Ang**2):
  XXX=              0.0000  YYY=              0.0000  ZZZ=              0.3037  XYY=              0.0000
  XXY=              0.0000  XXZ=              0.8892  XZZ=              0.0000  YZZ=              0.0000
  YYZ=              0.3762  XYZ=              0.0000
 Hexadecapole moment (field-independent basis, Debye-Ang**3):
 XXXX=             -5.3992 YYYY=             -8.2634 ZZZZ=            -30.9907 XXXY=              0.0000
 XXXZ=              0.0000 YYYX=              0.0000 YYYZ=              0.0000 ZZZX=              0.0000
 ZZZY=              0.0000 XXYY=             -2.2771 XXZZ=             -6.3965 YYZZ=             -7.0205
 XXYZ=              0.0000 YYXZ=              0.0000 ZZXY=              0.0000
 N-N= 1.587604438853D+00 E-N=-9.150088269519D+01  KE= 3.762643808230D+01
 Symmetry A1   KE= 3.632936871173D+01
 Symmetry A2   KE= 0.000000000000D+00
 Symmetry B1   KE= 1.254861408801D-31
 Symmetry B2   KE= 1.297069370569D+00
 Symmetry A1   SP=-3.068986037524D-14
 Symmetry A2   SP= 0.000000000000D+00
 Symmetry B1   SP= 4.678506699602D-32
 Symmetry B2   SP= 1.000000000000D+00
                          Isotropic Fermi Contact Couplings
        Atom                 a.u.       MegaHertz       Gauss      10(-4) cm-1
     1  H(1)               0.09354     418.10933     149.19181     139.46626
     2  C(13)              0.06209      69.79575      24.90486      23.28136
 --------------------------------------------------------
       Center         ----  Spin Dipole Couplings  ----
                      3XX-RR        3YY-RR        3ZZ-RR
 --------------------------------------------------------
     1   Atom       -0.005943     -0.000899      0.006842
     2   Atom       -0.407823      1.418625     -1.010802
 --------------------------------------------------------
                        XY            XZ            YZ
 --------------------------------------------------------
     1   Atom        0.000000      0.000000      0.000000
     2   Atom        0.000000      0.000000      0.000000
 --------------------------------------------------------


 ---------------------------------------------------------------------------------
              Anisotropic Spin Dipole Couplings in Principal Axis System
 ---------------------------------------------------------------------------------

       Atom             a.u.   MegaHertz   Gauss  10(-4) cm-1        Axes

              Baa    -0.0059    -3.171    -1.131    -1.058  1.0000  0.0000  0.0000
     1 H(1)   Bbb    -0.0009    -0.480    -0.171    -0.160  0.0000  1.0000  0.0000
              Bcc     0.0068     3.651     1.303     1.218  0.0000  0.0000  1.0000
 
              Baa    -1.0108  -135.640   -48.400   -45.245  0.0000  0.0000  1.0000
     2 C(13)  Bbb    -0.4078   -54.726   -19.528   -18.255  1.0000  0.0000  0.0000
              Bcc     1.4186   190.366    67.927    63.499  0.0000  1.0000  0.0000
 

 ---------------------------------------------------------------------------------

 SCFChk:  SCF convergence  6.66D-05 required  1.00D-08


 SCF Error SCF Error SCF Error SCF Error SCF Error SCF Error SCF Error SCF Error

                                    ERROR!!!!

    SCF has not converged.  Gradients and post-SCF results would be GARBAGE!!

 SCF Error SCF Error SCF Error SCF Error SCF Error SCF Error SCF Error SCF Error


 Error termination via Lnk1e in /work/home/ackgydj0bd/apprepo/gaussian/16b.01-none_v1.3/app/g16/l701.exe at Thu Jul  9 10:25:32 2026.
 Job cpu time:       0 days  0 hours  3 minutes 11.1 seconds.
 Elapsed time:       0 days  0 hours  0 minutes  3.6 seconds.
 File lengths (MBytes):  RWF=      6 Int=      0 D2E=      0 Chk=      1 Scr=      1
