 Entering Gaussian System, Link 0=g16
 Input=loop1_C1111_02.gjf
 Output=loop1_C1111_02.log
 Initial command:
 /work/home/ackgydj0bd/apprepo/gaussian/16b.01-none_v1.3/app/g16/l1.exe "/work/home/ackgydj0bd/apprepo/gaussian/16b.01-none_v1.3/app/g16/scratch/Gau-245361.inp" -scrdir="/work/home/ackgydj0bd/apprepo/gaussian/16b.01-none_v1.3/app/g16/scratch/"
 Entering Link 1 = /work/home/ackgydj0bd/apprepo/gaussian/16b.01-none_v1.3/app/g16/l1.exe PID=    245362.
  
 Copyright (c) 1988-2017, Gaussian, Inc.  All Rights Reserved.
  
 This is part of the Gaussian(R) 16 program.  It is based on
 the Gaussian(R) 09 system (copyright 2009, Gaussian, Inc.),
 the Gaussian(R) 03 system (copyright 2003, Gaussian, Inc.),
 the Gaussian(R) 98 system (copyright 1998, Gaussian, Inc.),
 the Gaussian(R) 94 system (copyright 1995, Gaussian, Inc.),
 the Gaussian 92(TM) system (copyright 1992, Gaussian, Inc.),
 the Gaussian 90(TM) system (copyright 1990, Gaussian, Inc.),
 the Gaussian 88(TM) system (copyright 1988, Gaussian, Inc.),
 the Gaussian 86(TM) system (copyright 1986, Carnegie Mellon
 University), and the Gaussian 82(TM) system (copyright 1983,
 Carnegie Mellon University). Gaussian is a federally registered
 trademark of Gaussian, Inc.
  
 This software contains proprietary and confidential information,
 including trade secrets, belonging to Gaussian, Inc.
  
 This software is provided under written license and may be
 used, copied, transmitted, or stored only in accord with that
 written license.
  
 The following legend is applicable only to US Government
 contracts under FAR:
  
                    RESTRICTED RIGHTS LEGEND
  
 Use, reproduction and disclosure by the US Government is
 subject to restrictions as set forth in subparagraphs (a)
 and (c) of the Commercial Computer Software - Restricted
 Rights clause in FAR 52.227-19.
  
 Gaussian, Inc.
 340 Quinnipiac St., Bldg. 40, Wallingford CT 06492
  
  
 ---------------------------------------------------------------
 Warning -- This program may not be used in any manner that
 competes with the business of Gaussian, Inc. or will provide
 assistance to any competitor of Gaussian, Inc.  The licensee
 of this program is prohibited from giving any competitor of
 Gaussian, Inc. access to this program.  By using this program,
 the user acknowledges that Gaussian, Inc. is engaged in the
 business of creating and licensing software in the field of
 computational chemistry and represents and warrants to the
 licensee that it is not a competitor of Gaussian, Inc. and that
 it will not use this program in any manner prohibited above.
 ---------------------------------------------------------------
  

 Cite this work as:
 Gaussian 16, Revision B.01,
 M. J. Frisch, G. W. Trucks, H. B. Schlegel, G. E. Scuseria, 
 M. A. Robb, J. R. Cheeseman, G. Scalmani, V. Barone, 
 G. A. Petersson, H. Nakatsuji, X. Li, M. Caricato, A. V. Marenich, 
 J. Bloino, B. G. Janesko, R. Gomperts, B. Mennucci, H. P. Hratchian, 
 J. V. Ortiz, A. F. Izmaylov, J. L. Sonnenberg, D. Williams-Young, 
 F. Ding, F. Lipparini, F. Egidi, J. Goings, B. Peng, A. Petrone, 
 T. Henderson, D. Ranasinghe, V. G. Zakrzewski, J. Gao, N. Rega, 
 G. Zheng, W. Liang, M. Hada, M. Ehara, K. Toyota, R. Fukuda, 
 J. Hasegawa, M. Ishida, T. Nakajima, Y. Honda, O. Kitao, H. Nakai, 
 T. Vreven, K. Throssell, J. A. Montgomery, Jr., J. E. Peralta, 
 F. Ogliaro, M. J. Bearpark, J. J. Heyd, E. N. Brothers, K. N. Kudin, 
 V. N. Staroverov, T. A. Keith, R. Kobayashi, J. Normand, 
 K. Raghavachari, A. P. Rendell, J. C. Burant, S. S. Iyengar, 
 J. Tomasi, M. Cossi, J. M. Millam, M. Klene, C. Adamo, R. Cammi, 
 J. W. Ochterski, R. L. Martin, K. Morokuma, O. Farkas, 
 J. B. Foresman, and D. J. Fox, Gaussian, Inc., Wallingford CT, 2016.
 
 ******************************************
 Gaussian 16:  EM64L-G16RevB.01 20-Dec-2017
                 9-Jul-2026 
 ******************************************
 %nproc=64
 Will use up to   64 processors via shared memory.
 -----------------------------------------
 #force b3lyp/3-21G* Geom=PrintInputOrient
 -----------------------------------------
 1/10=7,30=1,38=1/1,3;
 2/9=2000,12=2,17=6,18=5,40=1/2;
 3/5=5,7=1,11=2,25=1,30=1,71=1,74=-5/1,2,3;
 4//1;
 5/5=2,38=5/2;
 6/7=2,8=2,9=2,10=2,28=1/1;
 7/29=1/1,2,3,16;
 1/10=7,30=1/3;
 99//99;
 -------------------------------------------------
 Generated by MDDatasetMaker (Author: Jinzhe Zeng)
 -------------------------------------------------
 Symbolic Z-matrix:
 Charge =  0 Multiplicity = 1
 C                     18.019    20.943    11.678 
 H                     18.76     20.866    12.447 
 H                     17.146    21.422    12.07 
 H                     17.763    19.964    11.331 
 H                     18.408    21.52     10.865 
 

 GradGradGradGradGradGradGradGradGradGradGradGradGradGradGradGradGradGrad
 Berny optimization.
 Initialization pass.
 Trust Radius=3.00D-01 FncErr=1.00D-07 GrdErr=1.00D-07 EigMax=2.50D+02 EigMin=1.00D-04
 Number of steps in this run=      2 maximum allowed number of steps=      2.
 GradGradGradGradGradGradGradGradGradGradGradGradGradGradGradGradGradGrad

                          Input orientation:                          
 ---------------------------------------------------------------------
 Center     Atomic      Atomic             Coordinates (Angstroms)
 Number     Number       Type             X           Y           Z
 ---------------------------------------------------------------------
      1          6           0       18.019000   20.943000   11.678000
      2          1           0       18.760000   20.866000   12.447000
      3          1           0       17.146000   21.422000   12.070000
      4          1           0       17.763000   19.964000   11.331000
      5          1           0       18.408000   21.520000   10.865000
 ---------------------------------------------------------------------
                    Distance matrix (angstroms):
                    1          2          3          4          5
     1  C    0.000000
     2  H    1.070687   0.000000
     3  H    1.070156   1.748217   0.000000
     4  H    1.069760   1.747303   1.747162   0.000000
     5  H    1.070149   1.747668   1.747648   1.747660   0.000000
 Stoichiometry    CH4
 Framework group  C1[X(CH4)]
 Deg. of freedom     9
 Full point group                 C1      NOp   1
 Largest Abelian subgroup         C1      NOp   1
 Largest concise Abelian subgroup C1      NOp   1
                         Standard orientation:                         
 ---------------------------------------------------------------------
 Center     Atomic      Atomic             Coordinates (Angstroms)
 Number     Number       Type             X           Y           Z
 ---------------------------------------------------------------------
      1          6           0        0.000116    0.000029    0.000075
      2          1           0       -0.883903   -0.287406   -0.531209
      3          1           0        0.855937   -0.145049   -0.625829
      4          1           0        0.096878   -0.599417    0.880807
      5          1           0       -0.069609    1.031700    0.275780
 ---------------------------------------------------------------------
 Rotational constants (GHZ):         164.2463621         164.2035072         164.1161292
 Standard basis: 3-21G* (6D, 7F)
 There are    17 symmetry adapted cartesian basis functions of A   symmetry.
 There are    17 symmetry adapted basis functions of A   symmetry.
    17 basis functions,    27 primitive gaussians,    17 cartesian basis functions
     5 alpha electrons        5 beta electrons
       nuclear repulsion energy        13.6841147392 Hartrees.
 NAtoms=    5 NActive=    5 NUniq=    5 SFac= 1.00D+00 NAtFMM=   60 NAOKFM=F Big=F
 Integral buffers will be    131072 words long.
 Raffenetti 2 integral format.
 Two-electron integral symmetry is turned on.
 One-electron integrals computed using PRISM.
 PrsmSu:  requested number of processors reduced to:  31 ShMem   1 Linda.
 NBasis=    17 RedAO= T EigKep=  3.16D-02  NBF=    17
 NBsUse=    17 1.00D-06 EigRej= -1.00D+00 NBFU=    17
 ExpMin= 1.83D-01 ExpMax= 1.72D+02 ExpMxC= 1.72D+02 IAcc=3 IRadAn=         5 AccDes= 0.00D+00
 Harris functional with IExCor=  402 and IRadAn=       5 diagonalized for initial guess.
 HarFok:  IExCor=  402 AccDes= 0.00D+00 IRadAn=         5 IDoV= 1 UseB2=F ITyADJ=14
 ICtDFT=  3500011 ScaDFX=  1.000000  1.000000  1.000000  1.000000
 FoFCou: FMM=F IPFlag=           0 FMFlag=      100000 FMFlg1=           0
         NFxFlg=           0 DoJE=T BraDBF=F KetDBF=T FulRan=T
         wScrn=  0.000000 ICntrl=       500 IOpCl=  0 I1Cent=   200000004 NGrid=           0
         NMat0=    1 NMatS0=      1 NMatT0=    0 NMatD0=    1 NMtDS0=    0 NMtDT0=    0
 Petite list used in FoFCou.
 Keep R1 ints in memory in canonical form, NReq=55236554.
 Requested convergence on RMS density matrix=1.00D-08 within 128 cycles.
 Requested convergence on MAX density matrix=1.00D-06.
 Requested convergence on             energy=1.00D-06.
 No special actions if energy rises.
 Integral accuracy reduced to 1.0D-05 until final iterations.
 Initial convergence to 1.0D-05 achieved.  Increase integral accuracy.
 SCF Done:  E(RB3LYP) =  -40.3001842126     A.U. after    9 cycles
            NFock=  9  Conv=0.19D-08     -V/T= 2.0076

 **********************************************************************

            Population analysis using the SCF Density.

 **********************************************************************

 Orbital symmetries:
       Occupied  (A) (A) (A) (A) (A)
       Virtual   (A) (A) (A) (A) (A) (A) (A) (A) (A) (A) (A) (A)
 The electronic state is 1-A.
 Alpha  occ. eigenvalues --  -10.09022  -0.69701  -0.39299  -0.39290  -0.39272
 Alpha virt. eigenvalues --    0.15265   0.20178   0.20194   0.20205   0.69602
 Alpha virt. eigenvalues --    0.69620   0.69639   1.05720   1.07448   1.07484
 Alpha virt. eigenvalues --    1.07508   1.70659
          Condensed to atoms (all electrons):
               1          2          3          4          5
     1  C    5.301577   0.370405   0.370473   0.370474   0.370471
     2  H    0.370405   0.514146  -0.026696  -0.026787  -0.026764
     3  H    0.370473  -0.026696   0.513893  -0.026783  -0.026746
     4  H    0.370474  -0.026787  -0.026783   0.513835  -0.026720
     5  H    0.370471  -0.026764  -0.026746  -0.026720   0.513898
 Mulliken charges:
               1
     1  C   -0.783399
     2  H    0.195697
     3  H    0.195859
     4  H    0.195981
     5  H    0.195862
 Sum of Mulliken charges =   0.00000
 Mulliken charges with hydrogens summed into heavy atoms:
               1
     1  C    0.000000
 Electronic spatial extent (au):  <R**2>=             34.6370
 Charge=              0.0000 electrons
 Dipole moment (field-independent basis, Debye):
    X=              0.0000    Y=             -0.0002    Z=              0.0003  Tot=              0.0004
 Quadrupole moment (field-independent basis, Debye-Ang):
   XX=             -8.1936   YY=             -8.1937   ZZ=             -8.1961
   XY=             -0.0004   XZ=             -0.0006   YZ=             -0.0006
 Traceless Quadrupole moment (field-independent basis, Debye-Ang):
   XX=              0.0008   YY=              0.0008   ZZ=             -0.0016
   XY=             -0.0004   XZ=             -0.0006   YZ=             -0.0006
 Octapole moment (field-independent basis, Debye-Ang**2):
  XXX=             -0.0444  YYY=              0.6201  ZZZ=              0.2258  XYY=             -0.0681
  XXY=             -0.2404  XXZ=             -0.6256  XZZ=              0.1133  YZZ=             -0.3802
  YYZ=              0.4014  XYZ=             -0.0928
 Hexadecapole moment (field-independent basis, Debye-Ang**3):
 XXXX=            -14.1464 YYYY=            -14.0086 ZZZZ=            -14.4646 XXXY=              0.1137
 XXXZ=             -0.0278 YYYX=             -0.0855 YYYZ=              0.1357 ZZZX=             -0.0146
 ZZZY=             -0.3332 XXYY=             -5.0299 XXZZ=             -4.5713 YYZZ=             -4.7031
 XXYZ=              0.1952 YYXZ=              0.0401 ZZXY=             -0.0297
 N-N= 1.368411473915D+01 E-N=-1.200074557082D+02  KE= 3.999814572305D+01
 PrsmSu:  requested number of processors reduced to:  31 ShMem   1 Linda.
 Calling FoFJK, ICntrl=      2127 FMM=F ISym2X=0 I1Cent= 0 IOpClX= 0 NMat=1 NMatS=1 NMatT=0.
 ***** Axes restored to original set *****
 -------------------------------------------------------------------
 Center     Atomic                   Forces (Hartrees/Bohr)
 Number     Number              X              Y              Z
 -------------------------------------------------------------------
      1        6           0.000361616    0.000193632    0.000394887
      2        1           0.011146676   -0.001120569    0.011651738
      3        1          -0.013460412    0.007425678    0.006087927
      4        1          -0.004025548   -0.015387354   -0.005530768
      5        1           0.005977668    0.008888613   -0.012603784
 -------------------------------------------------------------------
 Cartesian Forces:  Max     0.015387354 RMS     0.008532830

 GradGradGradGradGradGradGradGradGradGradGradGradGradGradGradGradGradGrad
 Berny optimization.
 Search for a local minimum.
 Step number   1 out of a maximum of    2
 All quantities printed in internal units (Hartrees-Bohrs-Radians)
 Second derivative matrix not updated -- first step.
 The second derivative matrix:
                          X1        Y1        Z1        X2        Y2
           X1           0.70790
           Y1           0.00015   0.70852
           Z1          -0.00043   0.00002   0.70746
           X2          -0.21927   0.01454  -0.14517   0.20869
           Y2           0.01455  -0.08088   0.01510  -0.01554   0.06069
           Z2          -0.14517   0.01509  -0.23004   0.15526  -0.01614
           X3          -0.27421   0.10685   0.08747  -0.01079   0.00801
           Y3           0.10683  -0.13811  -0.04796  -0.00185   0.00181
           Z3           0.08747  -0.04796  -0.11871  -0.02176   0.01562
           X4          -0.09629  -0.06420  -0.02271  -0.00001  -0.02538
           Y4          -0.06420  -0.32498  -0.08702   0.00017   0.01561
           Z4          -0.02271  -0.08701  -0.11034  -0.00047  -0.02533
           X5          -0.11812  -0.05734   0.08084   0.02137   0.01836
           Y5          -0.05733  -0.16455   0.11985   0.00269   0.00276
           Z5           0.08084   0.11987  -0.24837   0.01213   0.01075
                          Z2        X3        Y3        Z3        X4
           Z2           0.22021
           X3           0.01119   0.26741
           Y3           0.00197  -0.11427   0.12186
           Z3           0.02253  -0.09353   0.05130   0.10111
           X4          -0.00253   0.02025   0.03028   0.00809   0.07714
           Y4           0.00140  -0.00326  -0.00477  -0.00143   0.06864
           Z4          -0.00208  -0.00575  -0.00890  -0.00194   0.02431
           X5          -0.01876  -0.00266  -0.02100   0.01973  -0.00109
           Y5          -0.00231   0.00267   0.01921  -0.01753  -0.00935
           Z5          -0.01061   0.00062   0.00359  -0.00300  -0.00716
                          Y4        Z4        X5        Y5        Z5
           Y4           0.32168
           Z4           0.09305   0.09215
           X5          -0.00135   0.00462   0.10050
           Y5          -0.00755   0.02819   0.06132   0.15013
           Z5          -0.00600   0.02221  -0.08644  -0.12820   0.23977
 ITU=  0
     Eigenvalues ---    0.11734   0.11738   0.14142   0.14144   0.14151
     Eigenvalues ---    0.37206   0.86826   0.86944   0.87013
 Angle between quadratic step and forces=   1.00 degrees.
 Linear search not attempted -- first point.
 B after Tr=     0.000060   -0.000006    0.000059
         Rot=    1.000000    0.000000    0.000000    0.000000 Ang=   0.00 deg.
 Variable       Old X    -DE/DX   Delta X   Delta X   Delta X     New X
                                 (Linear)    (Quad)   (Total)
    X1       34.05098   0.00036   0.00000   0.00021   0.00027  34.05124
    Y1       39.57653   0.00019   0.00000  -0.00002  -0.00003  39.57651
    Z1       22.06822   0.00039   0.00000   0.00020   0.00026  22.06848
    X2       35.45126   0.01115   0.00000   0.02998   0.03004  35.48130
    Y2       39.43103  -0.00112   0.00000  -0.00271  -0.00271  39.42831
    Z2       23.52142   0.01165   0.00000   0.03183   0.03189  23.55331
    X3       32.40124  -0.01346   0.00000  -0.03581  -0.03575  32.36549
    Y3       40.48171   0.00743   0.00000   0.02014   0.02013  40.50184
    Z3       22.80899   0.00609   0.00000   0.01667   0.01673  22.82572
    X4       33.56721  -0.00403   0.00000  -0.01065  -0.01059  33.55661
    Y4       37.72649  -0.01539   0.00000  -0.04114  -0.04114  37.68535
    Z4       21.41249  -0.00553   0.00000  -0.01511  -0.01505  21.39743
    X5       34.78608   0.00598   0.00000   0.01598   0.01604  34.80212
    Y5       40.66691   0.00889   0.00000   0.02375   0.02375  40.69066
    Z5       20.53187  -0.01260   0.00000  -0.03389  -0.03383  20.49804
         Item               Value     Threshold  Converged?
 Maximum Force            0.015387     0.000450     NO 
 RMS     Force            0.008533     0.000300     NO 
 Maximum Displacement     0.041142     0.001800     NO 
 RMS     Displacement     0.022931     0.001200     NO 
 Predicted change in Energy=-1.467247D-03
 GradGradGradGradGradGradGradGradGradGradGradGradGradGradGradGradGradGrad

 1\1\GINC-H08R06\Force\RB3LYP\3-21G*\C1H4\ACKGYDJ0BD\09-Jul-2026\0\\#fo
 rce b3lyp/3-21G* Geom=PrintInputOrient\\Generated by MDDatasetMaker (A
 uthor: Jinzhe Zeng)\\0,1\C,18.019,20.943,11.678\H,18.76,20.866,12.447\
 H,17.146,21.422,12.07\H,17.763,19.964,11.331\H,18.408,21.52,10.865\\Ve
 rsion=EM64L-G16RevB.01\State=1-A\HF=-40.3001842\RMSD=1.891e-09\RMSF=8.
 533e-03\Dipole=-0.0000166,-0.0001436,-0.0000416\Quadrupole=0.0007947,0
 .0003433,-0.001138,0.0000417,-0.0002898,-0.0007002\PG=C01 [X(C1H4)]\\@


 IT CANNOT BE MY BEAUTY, FOR I HAVE NONE; AND IT CANNOT BE MY WIT,
 FOR HE HAS NOT ENOUGH TO KNOW THAT I HAVE ANY.
 -- CATHARINE SEDLEY, PUZZLED ABOUT WHY SHE WAS MISTRESS TO JAMES II
 Job cpu time:       0 days  0 hours  2 minutes  7.4 seconds.
 Elapsed time:       0 days  0 hours  0 minutes  2.7 seconds.
 File lengths (MBytes):  RWF=      6 Int=      0 D2E=      0 Chk=      1 Scr=      1
 Normal termination of Gaussian 16 at Thu Jul  9 10:26:49 2026.
