 Entering Gaussian System, Link 0=g16
 Input=loop1_O11_07.gjf
 Output=loop1_O11_07.log
 Initial command:
 /work/home/ackgydj0bd/apprepo/gaussian/16b.01-none_v1.3/app/g16/l1.exe "/work/home/ackgydj0bd/apprepo/gaussian/16b.01-none_v1.3/app/g16/scratch/Gau-41375.inp" -scrdir="/work/home/ackgydj0bd/apprepo/gaussian/16b.01-none_v1.3/app/g16/scratch/"
 Entering Link 1 = /work/home/ackgydj0bd/apprepo/gaussian/16b.01-none_v1.3/app/g16/l1.exe PID=     41376.
  
 Copyright (c) 1988-2017, Gaussian, Inc.  All Rights Reserved.
  
 This is part of the Gaussian(R) 16 program.  It is based on
 the Gaussian(R) 09 system (copyright 2009, Gaussian, Inc.),
 the Gaussian(R) 03 system (copyright 2003, Gaussian, Inc.),
 the Gaussian(R) 98 system (copyright 1998, Gaussian, Inc.),
 the Gaussian(R) 94 system (copyright 1995, Gaussian, Inc.),
 the Gaussian 92(TM) system (copyright 1992, Gaussian, Inc.),
 the Gaussian 90(TM) system (copyright 1990, Gaussian, Inc.),
 the Gaussian 88(TM) system (copyright 1988, Gaussian, Inc.),
 the Gaussian 86(TM) system (copyright 1986, Carnegie Mellon
 University), and the Gaussian 82(TM) system (copyright 1983,
 Carnegie Mellon University). Gaussian is a federally registered
 trademark of Gaussian, Inc.
  
 This software contains proprietary and confidential information,
 including trade secrets, belonging to Gaussian, Inc.
  
 This software is provided under written license and may be
 used, copied, transmitted, or stored only in accord with that
 written license.
  
 The following legend is applicable only to US Government
 contracts under FAR:
  
                    RESTRICTED RIGHTS LEGEND
  
 Use, reproduction and disclosure by the US Government is
 subject to restrictions as set forth in subparagraphs (a)
 and (c) of the Commercial Computer Software - Restricted
 Rights clause in FAR 52.227-19.
  
 Gaussian, Inc.
 340 Quinnipiac St., Bldg. 40, Wallingford CT 06492
  
  
 ---------------------------------------------------------------
 Warning -- This program may not be used in any manner that
 competes with the business of Gaussian, Inc. or will provide
 assistance to any competitor of Gaussian, Inc.  The licensee
 of this program is prohibited from giving any competitor of
 Gaussian, Inc. access to this program.  By using this program,
 the user acknowledges that Gaussian, Inc. is engaged in the
 business of creating and licensing software in the field of
 computational chemistry and represents and warrants to the
 licensee that it is not a competitor of Gaussian, Inc. and that
 it will not use this program in any manner prohibited above.
 ---------------------------------------------------------------
  

 Cite this work as:
 Gaussian 16, Revision B.01,
 M. J. Frisch, G. W. Trucks, H. B. Schlegel, G. E. Scuseria, 
 M. A. Robb, J. R. Cheeseman, G. Scalmani, V. Barone, 
 G. A. Petersson, H. Nakatsuji, X. Li, M. Caricato, A. V. Marenich, 
 J. Bloino, B. G. Janesko, R. Gomperts, B. Mennucci, H. P. Hratchian, 
 J. V. Ortiz, A. F. Izmaylov, J. L. Sonnenberg, D. Williams-Young, 
 F. Ding, F. Lipparini, F. Egidi, J. Goings, B. Peng, A. Petrone, 
 T. Henderson, D. Ranasinghe, V. G. Zakrzewski, J. Gao, N. Rega, 
 G. Zheng, W. Liang, M. Hada, M. Ehara, K. Toyota, R. Fukuda, 
 J. Hasegawa, M. Ishida, T. Nakajima, Y. Honda, O. Kitao, H. Nakai, 
 T. Vreven, K. Throssell, J. A. Montgomery, Jr., J. E. Peralta, 
 F. Ogliaro, M. J. Bearpark, J. J. Heyd, E. N. Brothers, K. N. Kudin, 
 V. N. Staroverov, T. A. Keith, R. Kobayashi, J. Normand, 
 K. Raghavachari, A. P. Rendell, J. C. Burant, S. S. Iyengar, 
 J. Tomasi, M. Cossi, J. M. Millam, M. Klene, C. Adamo, R. Cammi, 
 J. W. Ochterski, R. L. Martin, K. Morokuma, O. Farkas, 
 J. B. Foresman, and D. J. Fox, Gaussian, Inc., Wallingford CT, 2016.
 
 ******************************************
 Gaussian 16:  EM64L-G16RevB.01 20-Dec-2017
                 9-Jul-2026 
 ******************************************
 %nproc=64
 Will use up to   64 processors via shared memory.
 -----------------------------------------
 #force b3lyp/3-21G* Geom=PrintInputOrient
 -----------------------------------------
 1/10=7,30=1,38=1/1,3;
 2/9=2000,12=2,17=6,18=5,40=1/2;
 3/5=5,7=1,11=2,25=1,30=1,71=1,74=-5/1,2,3;
 4//1;
 5/5=2,38=5/2;
 6/7=2,8=2,9=2,10=2,28=1/1;
 7/29=1/1,2,3,16;
 1/10=7,30=1/3;
 99//99;
 -------------------------------------------------
 Generated by MDDatasetMaker (Author: Jinzhe Zeng)
 -------------------------------------------------
 Symbolic Z-matrix:
 Charge =  0 Multiplicity = 2
 C                     4.26691   2.45016   22.7238 
 O                     2.77928   2.84267   22.2187 
 O                     3.10812   3.62356   21.292 
 H                     2.37461   3.74736   21.7521 
 O                     5.94152   2.21157   22.0803 
 

 GradGradGradGradGradGradGradGradGradGradGradGradGradGradGradGradGradGrad
 Berny optimization.
 Initialization pass.
 Trust Radius=3.00D-01 FncErr=1.00D-07 GrdErr=1.00D-07 EigMax=2.50D+02 EigMin=1.00D-04
 Number of steps in this run=      2 maximum allowed number of steps=      2.
 GradGradGradGradGradGradGradGradGradGradGradGradGradGradGradGradGradGrad

                          Input orientation:                          
 ---------------------------------------------------------------------
 Center     Atomic      Atomic             Coordinates (Angstroms)
 Number     Number       Type             X           Y           Z
 ---------------------------------------------------------------------
      1          6           0        4.266910    2.450160   22.723800
      2          8           0        2.779280    2.842670   22.218700
      3          8           0        3.108120    3.623560   21.292000
      4          1           0        2.374610    3.747360   21.752100
      5          8           0        5.941520    2.211570   22.080300
 ---------------------------------------------------------------------
                    Distance matrix (angstroms):
                    1          2          3          4          5
     1  C    0.000000
     2  O    1.619331   0.000000
     3  O    2.183967   1.255666   0.000000
     4  H    2.491531   1.095417   0.874674   0.000000
     5  O    1.809789   3.227569   3.262405   3.897334   0.000000
 Stoichiometry    CHO3(2)
 Framework group  C1[X(CHO3)]
 Deg. of freedom     9
 Full point group                 C1      NOp   1
 Largest Abelian subgroup         C1      NOp   1
 Largest concise Abelian subgroup C1      NOp   1
                         Standard orientation:                         
 ---------------------------------------------------------------------
 Center     Atomic      Atomic             Coordinates (Angstroms)
 Number     Number       Type             X           Y           Z
 ---------------------------------------------------------------------
      1          6           0        0.527102   -0.654164    0.159323
      2          8           0       -1.061621   -0.525779   -0.126524
      3          8           0       -1.169022    0.715517    0.029515
      4          1           0       -1.821854    0.172677    0.239731
      5          8           0        2.063049    0.279300   -0.052450
 ---------------------------------------------------------------------
 Rotational constants (GHZ):          25.6592002           4.3844991           3.7824038
 Standard basis: 3-21G* (6D, 7F)
 There are    38 symmetry adapted cartesian basis functions of A   symmetry.
 There are    38 symmetry adapted basis functions of A   symmetry.
    38 basis functions,    63 primitive gaussians,    38 cartesian basis functions
    16 alpha electrons       15 beta electrons
       nuclear repulsion energy       100.2623905158 Hartrees.
 NAtoms=    5 NActive=    5 NUniq=    5 SFac= 1.00D+00 NAtFMM=   60 NAOKFM=F Big=F
 Integral buffers will be    131072 words long.
 Raffenetti 2 integral format.
 Two-electron integral symmetry is turned on.
 One-electron integrals computed using PRISM.
 PrsmSu:  requested number of processors reduced to:  31 ShMem   1 Linda.
 NBasis=    38 RedAO= T EigKep=  5.14D-02  NBF=    38
 NBsUse=    38 1.00D-06 EigRej= -1.00D+00 NBFU=    38
 ExpMin= 1.83D-01 ExpMax= 3.22D+02 ExpMxC= 3.22D+02 IAcc=3 IRadAn=         5 AccDes= 0.00D+00
 Harris functional with IExCor=  402 and IRadAn=       5 diagonalized for initial guess.
 HarFok:  IExCor=  402 AccDes= 0.00D+00 IRadAn=         5 IDoV= 1 UseB2=F ITyADJ=14
 ICtDFT=  3500011 ScaDFX=  1.000000  1.000000  1.000000  1.000000
 FoFCou: FMM=F IPFlag=           0 FMFlag=      100000 FMFlg1=           0
         NFxFlg=           0 DoJE=T BraDBF=F KetDBF=T FulRan=T
         wScrn=  0.000000 ICntrl=       500 IOpCl=  0 I1Cent=   200000004 NGrid=           0
         NMat0=    1 NMatS0=      1 NMatT0=    0 NMatD0=    1 NMtDS0=    0 NMtDT0=    0
 Petite list used in FoFCou.
 Initial guess <Sx>= 0.0000 <Sy>= 0.0000 <Sz>= 0.5000 <S**2>= 0.7500 S= 0.5000
 Keep R1 and R2 ints in memory in canonical form, NReq=55854913.
 Requested convergence on RMS density matrix=1.00D-08 within 128 cycles.
 Requested convergence on MAX density matrix=1.00D-06.
 Requested convergence on             energy=1.00D-06.
 No special actions if energy rises.
 Integral accuracy reduced to 1.0D-05 until final iterations.
 EnCoef did     3 forward-backward iterations
 Rare condition: small coef for last iteration:  0.000D+00
 Rare condition: small coef for last iteration:  0.000D+00
 Problem detected with inexpensive integrals.
 Switching to full accuracy and repeating last cycle.
 Rare condition: small coef for last iteration:  0.000D+00
 EnCoef did   100 forward-backward iterations
 Rare condition: small coef for last iteration:  0.000D+00
 Rare condition: small coef for last iteration:  0.000D+00
 Rare condition: small coef for last iteration:  0.000D+00
 Rare condition: small coef for last iteration:  0.000D+00
 EnCoef did   100 forward-backward iterations
 Rare condition: small coef for last iteration:  0.000D+00
 Rare condition: small coef for last iteration:  0.000D+00
 Rare condition: small coef for last iteration:  0.000D+00
 Rare condition: small coef for last iteration:  0.000D+00
 Rare condition: small coef for last iteration:  0.000D+00
 Rare condition: small coef for last iteration:  0.000D+00
 Rare condition: small coef for last iteration:  0.000D+00
 Rare condition: small coef for last iteration:  0.000D+00
 Rare condition: small coef for last iteration:  0.000D+00
 Rare condition: small coef for last iteration:  0.000D+00
 Rare condition: small coef for last iteration:  0.000D+00
 Rare condition: small coef for last iteration:  0.000D+00
 Rare condition: small coef for last iteration:  0.000D+00
 Rare condition: small coef for last iteration:  0.000D+00
 Rare condition: small coef for last iteration:  0.000D+00
 Rare condition: small coef for last iteration:  0.000D+00
 Rare condition: small coef for last iteration:  0.000D+00
 Rare condition: small coef for last iteration:  0.000D+00
 Rare condition: small coef for last iteration:  0.000D+00
 Rare condition: small coef for last iteration:  0.000D+00
 Rare condition: small coef for last iteration:  0.000D+00
 Rare condition: small coef for last iteration:  0.000D+00
 Rare condition: small coef for last iteration:  0.000D+00
 Rare condition: small coef for last iteration:  0.000D+00
 Rare condition: small coef for last iteration:  0.000D+00
 Rare condition: small coef for last iteration:  0.000D+00
 Rare condition: small coef for last iteration:  0.000D+00
 Rare condition: small coef for last iteration:  0.000D+00
 Rare condition: small coef for last iteration:  0.000D+00
 Rare condition: small coef for last iteration:  0.000D+00
 Rare condition: small coef for last iteration:  0.000D+00
 Rare condition: small coef for last iteration:  0.000D+00
 Rare condition: small coef for last iteration:  0.000D+00
 Rare condition: small coef for last iteration:  0.000D+00
 Rare condition: small coef for last iteration:  0.000D+00
 Rare condition: small coef for last iteration:  0.000D+00
 Rare condition: small coef for last iteration:  0.000D+00
 Rare condition: small coef for last iteration:  0.000D+00
 Rare condition: small coef for last iteration:  0.000D+00
 Rare condition: small coef for last iteration:  0.000D+00
 Rare condition: small coef for last iteration:  0.000D+00
 Rare condition: small coef for last iteration:  0.000D+00
 Rare condition: small coef for last iteration:  0.000D+00
 >>>>>>>>>> Convergence criterion not met.
 SCF Done:  E(UB3LYP) =  -262.330673278     A.U. after  129 cycles
            NFock=128  Conv=0.40D-02     -V/T= 2.0049
 <Sx>= 0.0000 <Sy>= 0.0000 <Sz>= 0.5000 <S**2>= 0.9184 S= 0.5809
 <L.S>= 0.000000000000E+00
 Annihilation of the first spin contaminant:
 S**2 before annihilation     0.9184,   after     0.7548

 **********************************************************************

            Population analysis using the SCF Density.

 **********************************************************************

 Orbital symmetries:
 Alpha Orbitals:
       Occupied  (A) (A) (A) (A) (A) (A) (A) (A) (A) (A) (A) (A)
                 (A) (A) (A) (A)
       Virtual   (A) (A) (A) (A) (A) (A) (A) (A) (A) (A) (A) (A)
                 (A) (A) (A) (A) (A) (A) (A) (A) (A) (A)
 Beta  Orbitals:
       Occupied  (A) (A) (A) (A) (A) (A) (A) (A) (A) (A) (A) (A)
                 (A) (A) (A)
       Virtual   (A) (A) (A) (A) (A) (A) (A) (A) (A) (A) (A) (A)
                 (A) (A) (A) (A) (A) (A) (A) (A) (A) (A) (A)
 The electronic state is 2-A.
 Alpha  occ. eigenvalues --  -19.20469 -19.11869 -19.10065 -10.33762  -1.39938
 Alpha  occ. eigenvalues --   -0.91337  -0.89169  -0.68917  -0.58312  -0.52725
 Alpha  occ. eigenvalues --   -0.50100  -0.38357  -0.32049  -0.30837  -0.29502
 Alpha  occ. eigenvalues --   -0.26625
 Alpha virt. eigenvalues --   -0.14685  -0.10715   0.05097   0.12898   0.15783
 Alpha virt. eigenvalues --    0.66614   0.68229   0.74973   0.91563   1.06961
 Alpha virt. eigenvalues --    1.31624   1.35591   1.42376   1.43413   1.46675
 Alpha virt. eigenvalues --    1.51298   1.53507   1.62518   1.71733   2.52169
 Alpha virt. eigenvalues --    2.80504   2.83303
  Beta  occ. eigenvalues --  -19.20116 -19.11651 -19.09484 -10.32766  -1.39403
  Beta  occ. eigenvalues --   -0.89583  -0.87824  -0.67700  -0.57049  -0.51869
  Beta  occ. eigenvalues --   -0.47492  -0.36432  -0.30714  -0.30534  -0.26546
  Beta virt. eigenvalues --   -0.14975  -0.12133  -0.08619   0.07918   0.13435
  Beta virt. eigenvalues --    0.16359   0.68097   0.72579   0.75591   0.91732
  Beta virt. eigenvalues --    1.08967   1.32069   1.35976   1.42848   1.43508
  Beta virt. eigenvalues --    1.46785   1.53905   1.55329   1.62827   1.72676
  Beta virt. eigenvalues --    2.53476   2.81307   2.83767
          Condensed to atoms (all electrons):
               1          2          3          4          5
     1  C    5.542967   0.096556  -0.060884   0.012183   0.179945
     2  O    0.096556   8.421978  -0.179744  -0.062356  -0.000745
     3  O   -0.060884  -0.179744   8.284452   0.230532  -0.000397
     4  H    0.012183  -0.062356   0.230532   0.398631   0.000090
     5  O    0.179945  -0.000745  -0.000397   0.000090   7.921614
          Atomic-Atomic Spin Densities.
               1          2          3          4          5
     1  C    0.654041  -0.072227  -0.007358   0.000698  -0.002795
     2  O   -0.072227   0.199597  -0.025269   0.001566   0.000492
     3  O   -0.007358  -0.025269   0.103179  -0.004267  -0.000060
     4  H    0.000698   0.001566  -0.004267   0.001491   0.000035
     5  O   -0.002795   0.000492  -0.000060   0.000035   0.260062
 Mulliken charges and spin densities:
               1          2
     1  C    0.229233   0.572359
     2  O   -0.275689   0.104160
     3  O   -0.273958   0.066225
     4  H    0.420920  -0.000478
     5  O   -0.100507   0.257734
 Sum of Mulliken charges =   0.00000   1.00000
 Mulliken charges and spin densities with hydrogens summed into heavy atoms:
               1          2
     1  C    0.229233   0.572359
     2  O   -0.275689   0.104160
     3  O    0.146962   0.065747
     5  O   -0.100507   0.257734
 Electronic spatial extent (au):  <R**2>=            294.1045
 Charge=              0.0000 electrons
 Dipole moment (field-independent basis, Debye):
    X=             -2.1656    Y=             -0.4220    Z=              0.3511  Tot=              2.2341
 Quadrupole moment (field-independent basis, Debye-Ang):
   XX=            -19.9527   YY=            -23.2298   ZZ=            -21.5519
   XY=              0.3186   XZ=             -1.4385   YZ=              0.2199
 Traceless Quadrupole moment (field-independent basis, Debye-Ang):
   XX=              1.6254   YY=             -1.6516   ZZ=              0.0262
   XY=              0.3186   XZ=             -1.4385   YZ=              0.2199
 Octapole moment (field-independent basis, Debye-Ang**2):
  XXX=            -16.1492  YYY=              4.4201  ZZZ=             -0.9287  XYY=              0.2135
  XXY=              2.5814  XXZ=              0.9594  XZZ=             -1.6676  YZZ=              1.4214
  YYZ=             -0.6974  XYZ=             -0.0203
 Hexadecapole moment (field-independent basis, Debye-Ang**3):
 XXXX=           -219.6594 YYYY=            -56.7364 ZZZZ=            -16.9376 XXXY=              3.5005
 XXXZ=             -5.8217 YYYX=              3.5736 YYYZ=              1.6275 ZZZX=             -1.2596
 ZZZY=              0.8339 XXYY=            -50.5263 XXZZ=            -42.6316 YYZZ=            -12.7474
 XXYZ=              0.0677 YYXZ=             -1.1464 ZZXY=              0.9264
 N-N= 1.002623905158D+02 E-N=-8.189144342684D+02  KE= 2.610554563810D+02
                          Isotropic Fermi Contact Couplings
        Atom                 a.u.       MegaHertz       Gauss      10(-4) cm-1
     1  C(13)              0.24256     272.68606      97.30117      90.95828
     2  O(17)              0.05335     -32.33776     -11.53892     -10.78672
     3  O(17)              0.03895     -23.61061      -8.42485      -7.87565
     4  H(1)              -0.00113      -5.05631      -1.80422      -1.68660
     5  O(17)              0.00479      -2.90587      -1.03688      -0.96929
 --------------------------------------------------------
       Center         ----  Spin Dipole Couplings  ----
                      3XX-RR        3YY-RR        3ZZ-RR
 --------------------------------------------------------
     1   Atom       -0.380959      0.543041     -0.162082
     2   Atom        0.341485     -0.233235     -0.108249
     3   Atom        0.206219     -0.120601     -0.085618
     4   Atom        0.011805      0.005635     -0.017440
     5   Atom       -1.710025      2.038469     -0.328443
 --------------------------------------------------------
                        XY            XZ            YZ
 --------------------------------------------------------
     1   Atom       -0.098907     -0.023293     -0.039961
     2   Atom       -0.110139      0.403782     -0.057647
     3   Atom       -0.126209      0.231973     -0.075605
     4   Atom       -0.005077     -0.010018      0.000569
     5   Atom        1.487605     -0.105578     -1.496914
 --------------------------------------------------------


 ---------------------------------------------------------------------------------
              Anisotropic Spin Dipole Couplings in Principal Axis System
 ---------------------------------------------------------------------------------

       Atom             a.u.   MegaHertz   Gauss  10(-4) cm-1        Axes

              Baa    -0.3947   -52.961   -18.898   -17.666  0.9870  0.1091  0.1176
     1 C(13)  Bbb    -0.1608   -21.575    -7.699    -7.197 -0.1225  0.0391  0.9917
              Bcc     0.5554    74.536    26.596    24.863 -0.1036  0.9933 -0.0520
 
              Baa    -0.3459    25.032     8.932     8.350 -0.5130 -0.0634  0.8560
     2 O(17)  Bbb    -0.2514    18.192     6.491     6.068  0.0948  0.9870  0.1300
              Bcc     0.5974   -43.224   -15.423   -14.418  0.8531 -0.1479  0.5003
 
              Baa    -0.2142    15.502     5.532     5.171 -0.4590  0.0946  0.8834
     3 O(17)  Bbb    -0.1635    11.830     4.221     3.946  0.2941  0.9544  0.0505
              Bcc     0.3777   -27.333    -9.753    -9.117  0.8384 -0.2830  0.4659
 
              Baa    -0.0206   -10.980    -3.918    -3.662  0.3007  0.0376  0.9530
     4 H(1)   Bbb     0.0035     1.852     0.661     0.618  0.3727  0.9151 -0.1537
              Bcc     0.0171     9.127     3.257     3.045  0.8779 -0.4014 -0.2612
 
              Baa    -2.3271   168.387    60.085    56.168  0.8899 -0.3864 -0.2424
     5 O(17)  Bbb    -0.8357    60.471    21.578    20.171  0.3623  0.2761  0.8902
              Bcc     3.1628  -228.859   -81.662   -76.339  0.2770  0.8800 -0.3857
 

 ---------------------------------------------------------------------------------

 SCFChk:  SCF convergence  3.95D-03 required  1.00D-08


 SCF Error SCF Error SCF Error SCF Error SCF Error SCF Error SCF Error SCF Error

                                    ERROR!!!!

    SCF has not converged.  Gradients and post-SCF results would be GARBAGE!!

 SCF Error SCF Error SCF Error SCF Error SCF Error SCF Error SCF Error SCF Error


 Error termination via Lnk1e in /work/home/ackgydj0bd/apprepo/gaussian/16b.01-none_v1.3/app/g16/l701.exe at Thu Jul  9 10:30:28 2026.
 Job cpu time:       0 days  0 hours  4 minutes  0.1 seconds.
 Elapsed time:       0 days  0 hours  0 minutes  4.2 seconds.
 File lengths (MBytes):  RWF=      6 Int=      0 D2E=      0 Chk=      1 Scr=      1
