 Entering Gaussian System, Link 0=g16
 Input=loop1_O2_03.gjf
 Output=loop1_O2_03.log
 Initial command:
 /work/home/ackgydj0bd/apprepo/gaussian/16b.01-none_v1.3/app/g16/l1.exe "/work/home/ackgydj0bd/apprepo/gaussian/16b.01-none_v1.3/app/g16/scratch/Gau-47190.inp" -scrdir="/work/home/ackgydj0bd/apprepo/gaussian/16b.01-none_v1.3/app/g16/scratch/"
 Entering Link 1 = /work/home/ackgydj0bd/apprepo/gaussian/16b.01-none_v1.3/app/g16/l1.exe PID=     47191.
  
 Copyright (c) 1988-2017, Gaussian, Inc.  All Rights Reserved.
  
 This is part of the Gaussian(R) 16 program.  It is based on
 the Gaussian(R) 09 system (copyright 2009, Gaussian, Inc.),
 the Gaussian(R) 03 system (copyright 2003, Gaussian, Inc.),
 the Gaussian(R) 98 system (copyright 1998, Gaussian, Inc.),
 the Gaussian(R) 94 system (copyright 1995, Gaussian, Inc.),
 the Gaussian 92(TM) system (copyright 1992, Gaussian, Inc.),
 the Gaussian 90(TM) system (copyright 1990, Gaussian, Inc.),
 the Gaussian 88(TM) system (copyright 1988, Gaussian, Inc.),
 the Gaussian 86(TM) system (copyright 1986, Carnegie Mellon
 University), and the Gaussian 82(TM) system (copyright 1983,
 Carnegie Mellon University). Gaussian is a federally registered
 trademark of Gaussian, Inc.
  
 This software contains proprietary and confidential information,
 including trade secrets, belonging to Gaussian, Inc.
  
 This software is provided under written license and may be
 used, copied, transmitted, or stored only in accord with that
 written license.
  
 The following legend is applicable only to US Government
 contracts under FAR:
  
                    RESTRICTED RIGHTS LEGEND
  
 Use, reproduction and disclosure by the US Government is
 subject to restrictions as set forth in subparagraphs (a)
 and (c) of the Commercial Computer Software - Restricted
 Rights clause in FAR 52.227-19.
  
 Gaussian, Inc.
 340 Quinnipiac St., Bldg. 40, Wallingford CT 06492
  
  
 ---------------------------------------------------------------
 Warning -- This program may not be used in any manner that
 competes with the business of Gaussian, Inc. or will provide
 assistance to any competitor of Gaussian, Inc.  The licensee
 of this program is prohibited from giving any competitor of
 Gaussian, Inc. access to this program.  By using this program,
 the user acknowledges that Gaussian, Inc. is engaged in the
 business of creating and licensing software in the field of
 computational chemistry and represents and warrants to the
 licensee that it is not a competitor of Gaussian, Inc. and that
 it will not use this program in any manner prohibited above.
 ---------------------------------------------------------------
  

 Cite this work as:
 Gaussian 16, Revision B.01,
 M. J. Frisch, G. W. Trucks, H. B. Schlegel, G. E. Scuseria, 
 M. A. Robb, J. R. Cheeseman, G. Scalmani, V. Barone, 
 G. A. Petersson, H. Nakatsuji, X. Li, M. Caricato, A. V. Marenich, 
 J. Bloino, B. G. Janesko, R. Gomperts, B. Mennucci, H. P. Hratchian, 
 J. V. Ortiz, A. F. Izmaylov, J. L. Sonnenberg, D. Williams-Young, 
 F. Ding, F. Lipparini, F. Egidi, J. Goings, B. Peng, A. Petrone, 
 T. Henderson, D. Ranasinghe, V. G. Zakrzewski, J. Gao, N. Rega, 
 G. Zheng, W. Liang, M. Hada, M. Ehara, K. Toyota, R. Fukuda, 
 J. Hasegawa, M. Ishida, T. Nakajima, Y. Honda, O. Kitao, H. Nakai, 
 T. Vreven, K. Throssell, J. A. Montgomery, Jr., J. E. Peralta, 
 F. Ogliaro, M. J. Bearpark, J. J. Heyd, E. N. Brothers, K. N. Kudin, 
 V. N. Staroverov, T. A. Keith, R. Kobayashi, J. Normand, 
 K. Raghavachari, A. P. Rendell, J. C. Burant, S. S. Iyengar, 
 J. Tomasi, M. Cossi, J. M. Millam, M. Klene, C. Adamo, R. Cammi, 
 J. W. Ochterski, R. L. Martin, K. Morokuma, O. Farkas, 
 J. B. Foresman, and D. J. Fox, Gaussian, Inc., Wallingford CT, 2016.
 
 ******************************************
 Gaussian 16:  EM64L-G16RevB.01 20-Dec-2017
                 9-Jul-2026 
 ******************************************
 %nproc=64
 Will use up to   64 processors via shared memory.
 -----------------------------------------
 #force b3lyp/3-21G* Geom=PrintInputOrient
 -----------------------------------------
 1/10=7,30=1,38=1/1,3;
 2/9=2000,12=2,17=6,18=5,40=1/2;
 3/5=5,7=1,11=2,25=1,30=1,71=1,74=-5/1,2,3;
 4//1;
 5/5=2,38=5/2;
 6/7=2,8=2,9=2,10=2,28=1/1;
 7/29=1/1,2,3,16;
 1/10=7,30=1/3;
 99//99;
 -------------------------------------------------
 Generated by MDDatasetMaker (Author: Jinzhe Zeng)
 -------------------------------------------------
 Symbolic Z-matrix:
 Charge =  0 Multiplicity = 4
 H                     8.02853   5.60567   12.0482 
 O                     9.3665    4.45237   11.6985 
 O                     9.44413   5.49559   11.8518 
 

 GradGradGradGradGradGradGradGradGradGradGradGradGradGradGradGradGradGrad
 Berny optimization.
 Initialization pass.
 Trust Radius=3.00D-01 FncErr=1.00D-07 GrdErr=1.00D-07 EigMax=2.50D+02 EigMin=1.00D-04
 Number of steps in this run=      2 maximum allowed number of steps=      2.
 GradGradGradGradGradGradGradGradGradGradGradGradGradGradGradGradGradGrad

                          Input orientation:                          
 ---------------------------------------------------------------------
 Center     Atomic      Atomic             Coordinates (Angstroms)
 Number     Number       Type             X           Y           Z
 ---------------------------------------------------------------------
      1          1           0        8.028530    5.605670   12.048200
      2          8           0        9.366500    4.452370   11.698500
      3          8           0        9.444130    5.495590   11.851800
 ---------------------------------------------------------------------
                    Distance matrix (angstroms):
                    1          2          3
     1  H    0.000000
     2  O    1.800709   0.000000
     3  O    1.433392   1.057277   0.000000
 Stoichiometry    HO2(4)
 Framework group  CS[SG(HO2)]
 Deg. of freedom     3
 Full point group                 CS      NOp   2
 Largest Abelian subgroup         CS      NOp   2
 Largest concise Abelian subgroup C1      NOp   1
                         Standard orientation:                         
 ---------------------------------------------------------------------
 Center     Atomic      Atomic             Coordinates (Angstroms)
 Number     Number       Type             X           Y           Z
 ---------------------------------------------------------------------
      1          1           0       -1.348714   -0.528746    0.000000
      2          8           0        0.084295    0.561685    0.000000
      3          8           0        0.084295   -0.495592    0.000000
 ---------------------------------------------------------------------
 Rotational constants (GHZ):         262.9546247          54.1516907          44.9043012
 Standard basis: 3-21G* (6D, 7F)
 There are    16 symmetry adapted cartesian basis functions of A'  symmetry.
 There are     4 symmetry adapted cartesian basis functions of A"  symmetry.
 There are    16 symmetry adapted basis functions of A'  symmetry.
 There are     4 symmetry adapted basis functions of A"  symmetry.
    20 basis functions,    33 primitive gaussians,    20 cartesian basis functions
    10 alpha electrons        7 beta electrons
       nuclear repulsion energy        37.3369982666 Hartrees.
 NAtoms=    3 NActive=    3 NUniq=    3 SFac= 1.00D+00 NAtFMM=   60 NAOKFM=F Big=F
 Integral buffers will be    131072 words long.
 Raffenetti 2 integral format.
 Two-electron integral symmetry is turned on.
 One-electron integrals computed using PRISM.
 PrsmSu:  requested number of processors reduced to:  31 ShMem   1 Linda.
 NBasis=    20 RedAO= T EigKep=  2.70D-02  NBF=    16     4
 NBsUse=    20 1.00D-06 EigRej= -1.00D+00 NBFU=    16     4
 ExpMin= 1.83D-01 ExpMax= 3.22D+02 ExpMxC= 3.22D+02 IAcc=3 IRadAn=         5 AccDes= 0.00D+00
 Harris functional with IExCor=  402 and IRadAn=       5 diagonalized for initial guess.
 HarFok:  IExCor=  402 AccDes= 0.00D+00 IRadAn=         5 IDoV= 1 UseB2=F ITyADJ=14
 ICtDFT=  3500011 ScaDFX=  1.000000  1.000000  1.000000  1.000000
 FoFCou: FMM=F IPFlag=           0 FMFlag=      100000 FMFlg1=           0
         NFxFlg=           0 DoJE=T BraDBF=F KetDBF=T FulRan=T
         wScrn=  0.000000 ICntrl=       500 IOpCl=  0 I1Cent=   200000004 NGrid=           0
         NMat0=    1 NMatS0=      1 NMatT0=    0 NMatD0=    1 NMtDS0=    0 NMtDT0=    0
 Petite list used in FoFCou.
 Initial guess orbital symmetries:
 Alpha Orbitals:
       Occupied  (A') (A') (A') (A') (A') (A") (A') (A') (A") (A')
       Virtual   (A') (A') (A") (A') (A') (A') (A") (A') (A') (A')
 Beta  Orbitals:
       Occupied  (A') (A') (A') (A') (A') (A") (A')
       Virtual   (A') (A") (A') (A') (A') (A") (A') (A') (A') (A")
                 (A') (A') (A')
 The electronic state of the initial guess is 4-A".
 Initial guess <Sx>= 0.0000 <Sy>= 0.0000 <Sz>= 1.5000 <S**2>= 3.7500 S= 1.5000
 Keep R1 and R2 ints in memory in symmetry-blocked form, NReq=55259075.
 Requested convergence on RMS density matrix=1.00D-08 within 128 cycles.
 Requested convergence on MAX density matrix=1.00D-06.
 Requested convergence on             energy=1.00D-06.
 No special actions if energy rises.
 Integral accuracy reduced to 1.0D-05 until final iterations.
 Initial convergence to 1.0D-05 achieved.  Increase integral accuracy.
 SCF Done:  E(UB3LYP) =  -149.831729817     A.U. after   11 cycles
            NFock= 11  Conv=0.32D-08     -V/T= 1.9977
 <Sx>= 0.0000 <Sy>= 0.0000 <Sz>= 1.5000 <S**2>= 3.7538 S= 1.5010
 <L.S>= 0.000000000000E+00
 Annihilation of the first spin contaminant:
 S**2 before annihilation     3.7538,   after     3.7500

 **********************************************************************

            Population analysis using the SCF Density.

 **********************************************************************

 Orbital symmetries:
 Alpha Orbitals:
       Occupied  (A') (A') (A') (A') (A') (A") (A') (A') (A") (A')
       Virtual   (A') (A') (A") (A') (A') (A') (A") (A') (A') (A')
 Beta  Orbitals:
       Occupied  (A') (A') (A') (A') (A') (A") (A')
       Virtual   (A') (A") (A') (A') (A') (A") (A') (A') (A') (A")
                 (A') (A') (A')
 The electronic state is 4-A".
 Alpha  occ. eigenvalues --  -19.20880 -19.19500  -1.51824  -0.79900  -0.68041
 Alpha  occ. eigenvalues --   -0.65136  -0.57357  -0.30959  -0.26620  -0.18286
 Alpha virt. eigenvalues --    0.43466   0.84327   1.25386   1.30355   1.33259
 Alpha virt. eigenvalues --    1.37712   1.38804   1.46650   2.23728   2.80360
  Beta  occ. eigenvalues --  -19.17872 -19.16359  -1.45916  -0.70488  -0.56822
  Beta  occ. eigenvalues --   -0.54659  -0.52162
  Beta virt. eigenvalues --   -0.09661  -0.06299   0.03372   0.48710   0.99225
  Beta virt. eigenvalues --    1.32621   1.34904   1.39329   1.40023   1.46294
  Beta virt. eigenvalues --    1.54934   2.29500   2.86465
          Condensed to atoms (all electrons):
               1          2          3
     1  H    1.267834  -0.017145  -0.160823
     2  O   -0.017145   8.114115  -0.159374
     3  O   -0.160823  -0.159374   8.292736
          Atomic-Atomic Spin Densities.
               1          2          3
     1  H    1.204412  -0.026303  -0.243096
     2  O   -0.026303   1.559342  -0.472325
     3  O   -0.243096  -0.472325   1.719695
 Mulliken charges and spin densities:
               1          2
     1  H   -0.089866   0.935012
     2  O    0.062405   1.060714
     3  O    0.027462   1.004274
 Sum of Mulliken charges =   0.00000   3.00000
 Mulliken charges and spin densities with hydrogens summed into heavy atoms:
               1          2
     2  O    0.062405   1.060714
     3  O   -0.062405   1.939286
 Electronic spatial extent (au):  <R**2>=             49.8167
 Charge=              0.0000 electrons
 Dipole moment (field-independent basis, Debye):
    X=              0.9356    Y=              0.2903    Z=              0.0000  Tot=              0.9796
 Quadrupole moment (field-independent basis, Debye-Ang):
   XX=            -12.2925   YY=            -11.9771   ZZ=            -10.5487
   XY=             -0.5025   XZ=              0.0000   YZ=              0.0000
 Traceless Quadrupole moment (field-independent basis, Debye-Ang):
   XX=             -0.6864   YY=             -0.3710   ZZ=              1.0574
   XY=             -0.5025   XZ=              0.0000   YZ=              0.0000
 Octapole moment (field-independent basis, Debye-Ang**2):
  XXX=              6.4031  YYY=              1.1898  ZZZ=              0.0000  XYY=              1.3234
  XXY=              1.4215  XXZ=              0.0000  XZZ=              1.1971  YZZ=              0.4279
  YYZ=              0.0000  XYZ=              0.0000
 Hexadecapole moment (field-independent basis, Debye-Ang**3):
 XXXX=            -27.8523 YYYY=            -25.1049 ZZZZ=             -6.5909 XXXY=             -4.6928
 XXXZ=              0.0000 YYYX=             -3.3828 YYYZ=              0.0000 ZZZX=              0.0000
 ZZZY=              0.0000 XXYY=             -8.7940 XXZZ=             -5.0661 YYZZ=             -5.4143
 XXYZ=              0.0000 YYXZ=              0.0000 ZZXY=             -1.0732
 N-N= 3.733699826659D+01 E-N=-4.288212687422D+02  KE= 1.501791769628D+02
 Symmetry A'   KE= 1.424262705957D+02
 Symmetry A"   KE= 7.752906367114D+00
 Symmetry A'   SP= 2.000000000000D+00
 Symmetry A"   SP= 1.000000000000D+00
                          Isotropic Fermi Contact Couplings
        Atom                 a.u.       MegaHertz       Gauss      10(-4) cm-1
     1  H(1)               0.24710     368.17372     131.37354     122.80953
     2  O(17)              0.19204     -38.80438     -13.84637     -12.94375
     3  O(17)              0.44506     -89.93067     -32.08950     -29.99764
 --------------------------------------------------------
       Center         ----  Spin Dipole Couplings  ----
                      3XX-RR        3YY-RR        3ZZ-RR
 --------------------------------------------------------
     1   Atom        0.080360     -0.031601     -0.048760
     2   Atom        1.300871     -2.226715      0.925844
     3   Atom        1.211741     -2.151330      0.939590
 --------------------------------------------------------
                        XY            XZ            YZ
 --------------------------------------------------------
     1   Atom        0.024070      0.000000      0.000000
     2   Atom       -0.048649      0.000000      0.000000
     3   Atom        0.085683      0.000000      0.000000
 --------------------------------------------------------


 ---------------------------------------------------------------------------------
              Anisotropic Spin Dipole Couplings in Principal Axis System
 ---------------------------------------------------------------------------------

       Atom             a.u.   MegaHertz   Gauss  10(-4) cm-1        Axes

              Baa    -0.0488   -26.016    -9.283    -8.678  0.0000  0.0000  1.0000
     1 H(1)   Bbb    -0.0366   -19.505    -6.960    -6.506 -0.2016  0.9795  0.0000
              Bcc     0.0853    45.520    16.243    15.184  0.9795  0.2016  0.0000
 
              Baa    -2.2274   161.172    57.510    53.761  0.0138  0.9999  0.0000
     2 O(17)  Bbb     0.9258   -66.993   -23.905   -22.347  0.0000  0.0000  1.0000
              Bcc     1.3015   -94.179   -33.605   -31.415  0.9999 -0.0138  0.0000
 
              Baa    -2.1535   155.827    55.603    51.978 -0.0255  0.9997  0.0000
     3 O(17)  Bbb     0.9396   -67.988   -24.260   -22.678  0.0000  0.0000  1.0000
              Bcc     1.2139   -87.839   -31.343   -29.300  0.9997  0.0255  0.0000
 

 ---------------------------------------------------------------------------------

 PrsmSu:  requested number of processors reduced to:  31 ShMem   1 Linda.
 Calling FoFJK, ICntrl=      2127 FMM=F ISym2X=1 I1Cent= 0 IOpClX= 1 NMat=1 NMatS=1 NMatT=0.
 ***** Axes restored to original set *****
 -------------------------------------------------------------------
 Center     Atomic                   Forces (Hartrees/Bohr)
 Number     Number              X              Y              Z
 -------------------------------------------------------------------
      1        1          -0.090678286    0.012314437    0.013403666
      2        8          -0.032138919   -0.527867009   -0.078473457
      3        8           0.122817205    0.515552572    0.065069792
 -------------------------------------------------------------------
 Cartesian Forces:  Max     0.527867009 RMS     0.253749883

 GradGradGradGradGradGradGradGradGradGradGradGradGradGradGradGradGradGrad
 Berny optimization.
 Search for a local minimum.
 Step number   1 out of a maximum of    2
 All quantities printed in internal units (Hartrees-Bohrs-Radians)
 Second derivative matrix not updated -- first step.
 The second derivative matrix:
                          X1        Y1        Z1        X2        Y2
           X1           1.00000
           Y1           0.00000   1.00000
           Z1           0.00000   0.00000   1.00000
           X2           0.00000   0.00000   0.00000   1.00689
           Y2           0.00000   0.00000   0.00000   0.09264   2.24492
           Z2           0.00000   0.00000   0.00000   0.01361   0.18294
           X3           0.00000   0.00000   0.00000  -0.01228  -0.16509
           Y3           0.00000   0.00000   0.00000  -0.16509  -2.21851
           Z3           0.00000   0.00000   0.00000  -0.02426  -0.32601
                          Z2        X3        Y3        Z3
           Z2           1.02688
           X3          -0.02426   1.00689
           Y3          -0.32601   0.09264   2.24492
           Z3          -0.04791   0.01361   0.18294   1.02688
 ITU=  0
     Eigenvalues ---    0.95814   1.00000   4.55740
 Angle between quadratic step and forces=  26.60 degrees.
 ClnCor:  largest displacement from symmetrization is 1.96D-17 for atom     3.
 Linear search not attempted -- first point.
 ClnCor:  largest displacement from symmetrization is 3.55D-15 for atom     3.
 B after Tr=    -0.067782    0.096658    0.023694
         Rot=    0.999994    0.000434   -0.000536    0.003427 Ang=   0.40 deg.
 Variable       Old X    -DE/DX   Delta X   Delta X   Delta X     New X
                                 (Linear)    (Quad)   (Total)
    X1       15.17172  -0.09068   0.00000  -0.10698  -0.07805  15.09367
    Y1       10.59318   0.01231   0.00000  -0.00038   0.01245  10.60563
    Z1       22.76780   0.01340   0.00000   0.01348   0.01183  22.77963
    X2       17.70012  -0.03214   0.00000  -0.01263  -0.00021  17.69990
    Y2        8.41376  -0.52787   0.00000  -0.11362  -0.11930   8.29446
    Z2       22.10696  -0.07847   0.00000  -0.01617  -0.01863  22.08833
    X3       17.84682   0.12282   0.00000   0.05045   0.07827  17.92509
    Y3       10.38516   0.51555   0.00000   0.11375   0.10685  10.49201
    Z3       22.39666   0.06507   0.00000   0.01140   0.00680  22.40346
         Item               Value     Threshold  Converged?
 Maximum Force            0.527867     0.000450     NO 
 RMS     Force            0.253750     0.000300     NO 
 Maximum Displacement     0.119301     0.001800     NO 
 RMS     Displacement     0.065452     0.001200     NO 
 Predicted change in Energy=-6.960067D-02
 GradGradGradGradGradGradGradGradGradGradGradGradGradGradGradGradGradGrad

 1\1\GINC-H08R06\Force\UB3LYP\3-21G*\H1O2(4)\ACKGYDJ0BD\09-Jul-2026\0\\
 #force b3lyp/3-21G* Geom=PrintInputOrient\\Generated by MDDatasetMaker
  (Author: Jinzhe Zeng)\\0,4\H,8.02853,5.60567,12.0482\O,9.3665,4.45237
 ,11.6985\O,9.44413,5.49559,11.8518\\Version=EM64L-G16RevB.01\State=4-A
 "\HF=-149.8317298\S2=3.753802\S2-1=0.\S2A=3.750006\RMSD=3.241e-09\RMSF
 =2.537e-01\Dipole=0.3558549,-0.132553,-0.0657713\Quadrupole=-0.4347972
 ,-0.2913683,0.7261654,0.355638,0.2101586,-0.2135068\PG=CS [SG(H1O2)]\\
 @


 I WISH TO HAVE NO CONNECTION WITH ANY SHIP THAT DOES NOT SAIL FAST,
 FOR I INTEND TO GO IN HARM'S WAY.
     -- JOHN PAUL JONES, USN 1747-1792
 Job cpu time:       0 days  0 hours  2 minutes 35.1 seconds.
 Elapsed time:       0 days  0 hours  0 minutes  3.1 seconds.
 File lengths (MBytes):  RWF=      6 Int=      0 D2E=      0 Chk=      1 Scr=      1
 Normal termination of Gaussian 16 at Thu Jul  9 10:30:49 2026.
