 Entering Gaussian System, Link 0=g16
 Input=loop1_C1111_01.gjf
 Output=loop1_C1111_01.log
 Initial command:
 /work/home/ackgydj0bd/apprepo/gaussian/16b.01-none_v1.3/app/g16/l1.exe "/work/home/ackgydj0bd/apprepo/gaussian/16b.01-none_v1.3/app/g16/scratch/Gau-244346.inp" -scrdir="/work/home/ackgydj0bd/apprepo/gaussian/16b.01-none_v1.3/app/g16/scratch/"
 Entering Link 1 = /work/home/ackgydj0bd/apprepo/gaussian/16b.01-none_v1.3/app/g16/l1.exe PID=    244347.
  
 Copyright (c) 1988-2017, Gaussian, Inc.  All Rights Reserved.
  
 This is part of the Gaussian(R) 16 program.  It is based on
 the Gaussian(R) 09 system (copyright 2009, Gaussian, Inc.),
 the Gaussian(R) 03 system (copyright 2003, Gaussian, Inc.),
 the Gaussian(R) 98 system (copyright 1998, Gaussian, Inc.),
 the Gaussian(R) 94 system (copyright 1995, Gaussian, Inc.),
 the Gaussian 92(TM) system (copyright 1992, Gaussian, Inc.),
 the Gaussian 90(TM) system (copyright 1990, Gaussian, Inc.),
 the Gaussian 88(TM) system (copyright 1988, Gaussian, Inc.),
 the Gaussian 86(TM) system (copyright 1986, Carnegie Mellon
 University), and the Gaussian 82(TM) system (copyright 1983,
 Carnegie Mellon University). Gaussian is a federally registered
 trademark of Gaussian, Inc.
  
 This software contains proprietary and confidential information,
 including trade secrets, belonging to Gaussian, Inc.
  
 This software is provided under written license and may be
 used, copied, transmitted, or stored only in accord with that
 written license.
  
 The following legend is applicable only to US Government
 contracts under FAR:
  
                    RESTRICTED RIGHTS LEGEND
  
 Use, reproduction and disclosure by the US Government is
 subject to restrictions as set forth in subparagraphs (a)
 and (c) of the Commercial Computer Software - Restricted
 Rights clause in FAR 52.227-19.
  
 Gaussian, Inc.
 340 Quinnipiac St., Bldg. 40, Wallingford CT 06492
  
  
 ---------------------------------------------------------------
 Warning -- This program may not be used in any manner that
 competes with the business of Gaussian, Inc. or will provide
 assistance to any competitor of Gaussian, Inc.  The licensee
 of this program is prohibited from giving any competitor of
 Gaussian, Inc. access to this program.  By using this program,
 the user acknowledges that Gaussian, Inc. is engaged in the
 business of creating and licensing software in the field of
 computational chemistry and represents and warrants to the
 licensee that it is not a competitor of Gaussian, Inc. and that
 it will not use this program in any manner prohibited above.
 ---------------------------------------------------------------
  

 Cite this work as:
 Gaussian 16, Revision B.01,
 M. J. Frisch, G. W. Trucks, H. B. Schlegel, G. E. Scuseria, 
 M. A. Robb, J. R. Cheeseman, G. Scalmani, V. Barone, 
 G. A. Petersson, H. Nakatsuji, X. Li, M. Caricato, A. V. Marenich, 
 J. Bloino, B. G. Janesko, R. Gomperts, B. Mennucci, H. P. Hratchian, 
 J. V. Ortiz, A. F. Izmaylov, J. L. Sonnenberg, D. Williams-Young, 
 F. Ding, F. Lipparini, F. Egidi, J. Goings, B. Peng, A. Petrone, 
 T. Henderson, D. Ranasinghe, V. G. Zakrzewski, J. Gao, N. Rega, 
 G. Zheng, W. Liang, M. Hada, M. Ehara, K. Toyota, R. Fukuda, 
 J. Hasegawa, M. Ishida, T. Nakajima, Y. Honda, O. Kitao, H. Nakai, 
 T. Vreven, K. Throssell, J. A. Montgomery, Jr., J. E. Peralta, 
 F. Ogliaro, M. J. Bearpark, J. J. Heyd, E. N. Brothers, K. N. Kudin, 
 V. N. Staroverov, T. A. Keith, R. Kobayashi, J. Normand, 
 K. Raghavachari, A. P. Rendell, J. C. Burant, S. S. Iyengar, 
 J. Tomasi, M. Cossi, J. M. Millam, M. Klene, C. Adamo, R. Cammi, 
 J. W. Ochterski, R. L. Martin, K. Morokuma, O. Farkas, 
 J. B. Foresman, and D. J. Fox, Gaussian, Inc., Wallingford CT, 2016.
 
 ******************************************
 Gaussian 16:  EM64L-G16RevB.01 20-Dec-2017
                 9-Jul-2026 
 ******************************************
 %nproc=64
 Will use up to   64 processors via shared memory.
 -----------------------------------------
 #force b3lyp/3-21G* Geom=PrintInputOrient
 -----------------------------------------
 1/10=7,30=1,38=1/1,3;
 2/9=2000,12=2,17=6,18=5,40=1/2;
 3/5=5,7=1,11=2,25=1,30=1,71=1,74=-5/1,2,3;
 4//1;
 5/5=2,38=5/2;
 6/7=2,8=2,9=2,10=2,28=1/1;
 7/29=1/1,2,3,16;
 1/10=7,30=1/3;
 99//99;
 -------------------------------------------------
 Generated by MDDatasetMaker (Author: Jinzhe Zeng)
 -------------------------------------------------
 Symbolic Z-matrix:
 Charge =  0 Multiplicity = 3
 H                     5.50144   8.09857   19.0207 
 C                     5.26181   8.62825   19.508 
 H                     5.85653   7.95441   20.3434 
 H                     3.88468   8.46786   19.7492 
 H                     4.82498   7.82836   19.5337 
 H                     4.97285   10.1552   19.4086 
 C                     5.42521   7.4553    18.0191 
 H                     5.57973   9.63566   21.1119 
 

 GradGradGradGradGradGradGradGradGradGradGradGradGradGradGradGradGradGrad
 Berny optimization.
 Initialization pass.
 Trust Radius=3.00D-01 FncErr=1.00D-07 GrdErr=1.00D-07 EigMax=2.50D+02 EigMin=1.00D-04
 Number of steps in this run=      2 maximum allowed number of steps=      2.
 GradGradGradGradGradGradGradGradGradGradGradGradGradGradGradGradGradGrad

                          Input orientation:                          
 ---------------------------------------------------------------------
 Center     Atomic      Atomic             Coordinates (Angstroms)
 Number     Number       Type             X           Y           Z
 ---------------------------------------------------------------------
      1          1           0        5.501440    8.098570   19.020700
      2          6           0        5.261810    8.628250   19.508000
      3          1           0        5.856530    7.954410   20.343400
      4          1           0        3.884680    8.467860   19.749200
      5          1           0        4.824980    7.828360   19.533700
      6          1           0        4.972850   10.155200   19.408600
      7          6           0        5.425210    7.455300   18.019100
      8          1           0        5.579730    9.635660   21.111900
 ---------------------------------------------------------------------
                    Distance matrix (angstroms):
                    1          2          3          4          5
     1  H    0.000000
     2  C    0.758581   0.000000
     3  H    1.377101   1.227047   0.000000
     4  H    1.811353   1.407263   2.122474   0.000000
     5  H    0.890944   0.911759   1.317421   1.157396   0.000000
     6  H    2.158611   1.557227   2.549160   2.036477   2.334888
     7  C    1.192816   1.902455   2.416096   2.528192   1.671366
     8  H    2.596515   1.920532   1.869174   2.468583   2.515292
                    6          7          8
     6  H    0.000000
     7  C    3.069984   0.000000
     8  H    1.881344   3.787249   0.000000
 Stoichiometry    C2H6(3)
 Framework group  C1[X(C2H6)]
 Deg. of freedom    18
 Full point group                 C1      NOp   1
 Largest Abelian subgroup         C1      NOp   1
 Largest concise Abelian subgroup C1      NOp   1
                         Standard orientation:                         
 ---------------------------------------------------------------------
 Center     Atomic      Atomic             Coordinates (Angstroms)
 Number     Number       Type             X           Y           Z
 ---------------------------------------------------------------------
      1          1           0       -0.202554   -0.160409   -0.164536
      2          6           0        0.526066    0.021454   -0.057369
      3          1           0        0.701288   -1.192992   -0.049444
      4          1           0        0.716168    0.476958    1.260495
      5          1           0        0.074908   -0.286459    0.672666
      6          1           0        1.433943    1.206670   -0.500061
      7          6           0       -1.376018    0.040164   -0.089958
      8          1           0        2.375961   -0.413474   -0.335162
 ---------------------------------------------------------------------
 Rotational constants (GHZ):          84.3837426          13.8174097          13.4950433
 Standard basis: 3-21G* (6D, 7F)
 There are    30 symmetry adapted cartesian basis functions of A   symmetry.
 There are    30 symmetry adapted basis functions of A   symmetry.
    30 basis functions,    48 primitive gaussians,    30 cartesian basis functions
    10 alpha electrons        8 beta electrons
       nuclear repulsion energy        39.7321773692 Hartrees.
 NAtoms=    8 NActive=    8 NUniq=    8 SFac= 1.00D+00 NAtFMM=   60 NAOKFM=F Big=F
 Integral buffers will be    131072 words long.
 Raffenetti 2 integral format.
 Two-electron integral symmetry is turned on.
 One-electron integrals computed using PRISM.
 PrsmSu:  requested number of processors reduced to:  31 ShMem   1 Linda.
 NBasis=    30 RedAO= T EigKep=  2.97D-03  NBF=    30
 NBsUse=    30 1.00D-06 EigRej= -1.00D+00 NBFU=    30
 ExpMin= 1.83D-01 ExpMax= 1.72D+02 ExpMxC= 1.72D+02 IAcc=3 IRadAn=         5 AccDes= 0.00D+00
 Harris functional with IExCor=  402 and IRadAn=       5 diagonalized for initial guess.
 HarFok:  IExCor=  402 AccDes= 0.00D+00 IRadAn=         5 IDoV= 1 UseB2=F ITyADJ=14
 ICtDFT=  3500011 ScaDFX=  1.000000  1.000000  1.000000  1.000000
 FoFCou: FMM=F IPFlag=           0 FMFlag=      100000 FMFlg1=           0
         NFxFlg=           0 DoJE=T BraDBF=F KetDBF=T FulRan=T
         wScrn=  0.000000 ICntrl=       500 IOpCl=  0 I1Cent=   200000004 NGrid=           0
         NMat0=    1 NMatS0=      1 NMatT0=    0 NMatD0=    1 NMtDS0=    0 NMtDT0=    0
 Petite list used in FoFCou.
 Initial guess <Sx>= 0.0000 <Sy>= 0.0000 <Sz>= 1.0000 <S**2>= 2.0000 S= 1.0000
 Keep R1 and R2 ints in memory in canonical form, NReq=55496462.
 Requested convergence on RMS density matrix=1.00D-08 within 128 cycles.
 Requested convergence on MAX density matrix=1.00D-06.
 Requested convergence on             energy=1.00D-06.
 No special actions if energy rises.
 Integral accuracy reduced to 1.0D-05 until final iterations.
 Initial convergence to 1.0D-05 achieved.  Increase integral accuracy.
 SCF Done:  E(UB3LYP) =  -78.4336262235     A.U. after   24 cycles
            NFock= 24  Conv=0.65D-08     -V/T= 1.9880
 <Sx>= 0.0000 <Sy>= 0.0000 <Sz>= 1.0000 <S**2>= 2.6897 S= 1.2145
 <L.S>= 0.000000000000E+00
 Annihilation of the first spin contaminant:
 S**2 before annihilation     2.6897,   after     2.0185

 **********************************************************************

            Population analysis using the SCF Density.

 **********************************************************************

 Orbital symmetries:
 Alpha Orbitals:
       Occupied  (A) (A) (A) (A) (A) (A) (A) (A) (A) (A)
       Virtual   (A) (A) (A) (A) (A) (A) (A) (A) (A) (A) (A) (A)
                 (A) (A) (A) (A) (A) (A) (A) (A)
 Beta  Orbitals:
       Occupied  (A) (A) (A) (A) (A) (A) (A) (A)
       Virtual   (A) (A) (A) (A) (A) (A) (A) (A) (A) (A) (A) (A)
                 (A) (A) (A) (A) (A) (A) (A) (A) (A) (A)
 The electronic state is 3-A.
 Alpha  occ. eigenvalues --  -10.22786 -10.17722  -1.03598  -0.61557  -0.48831
 Alpha  occ. eigenvalues --   -0.46484  -0.42481  -0.25901  -0.22804  -0.21092
 Alpha virt. eigenvalues --   -0.05549  -0.02552   0.01082   0.06315   0.16054
 Alpha virt. eigenvalues --    0.41399   0.59906   0.68118   0.71454   0.73779
 Alpha virt. eigenvalues --    0.79978   0.80665   0.83441   0.94658   0.97393
 Alpha virt. eigenvalues --    1.09000   1.15838   1.39782   1.54191   1.88928
  Beta  occ. eigenvalues --  -10.22501 -10.15399  -1.03419  -0.59178  -0.48272
  Beta  occ. eigenvalues --   -0.45961  -0.36387  -0.17695
  Beta virt. eigenvalues --   -0.06978  -0.05556  -0.03590  -0.02678   0.02400
  Beta virt. eigenvalues --    0.07257   0.16261   0.43658   0.60101   0.68934
  Beta virt. eigenvalues --    0.77241   0.78418   0.80562   0.82381   0.85427
  Beta virt. eigenvalues --    0.93417   1.04596   1.08979   1.16836   1.44071
  Beta virt. eigenvalues --    1.55241   1.89642
          Condensed to atoms (all electrons):
               1          2          3          4          5          6
     1  H    1.299790  -0.148156  -0.037771  -0.017220  -0.279214  -0.004810
     2  C   -0.148156   6.056705   0.359162   0.232089   0.155399   0.114606
     3  H   -0.037771   0.359162   0.581955   0.002867  -0.067968  -0.008864
     4  H   -0.017220   0.232089   0.002867   1.054538  -0.240038  -0.117215
     5  H   -0.279214   0.155399  -0.067968  -0.240038   1.053697   0.043850
     6  H   -0.004810   0.114606  -0.008864  -0.117215   0.043850   0.882204
     7  C   -0.000833  -0.167295  -0.006627  -0.016951   0.116878  -0.008877
     8  H   -0.002852  -0.062243  -0.030341  -0.004982   0.001988  -0.000539
               7          8
     1  H   -0.000833  -0.002852
     2  C   -0.167295  -0.062243
     3  H   -0.006627  -0.030341
     4  H   -0.016951  -0.004982
     5  H    0.116878   0.001988
     6  H   -0.008877  -0.000539
     7  C    6.335394   0.002114
     8  H    0.002114   1.123400
          Atomic-Atomic Spin Densities.
               1          2          3          4          5          6
     1  H    0.414392  -0.325445  -0.057310  -0.013754   0.073343   0.029282
     2  C   -0.325445   0.433354   0.053406  -0.011862  -0.015465   0.103783
     3  H   -0.057310   0.053406   0.043574  -0.021903   0.034519   0.009609
     4  H   -0.013754  -0.011862  -0.021903  -0.724496   0.264947   0.115232
     5  H    0.073343  -0.015465   0.034519   0.264947  -0.361767  -0.047133
     6  H    0.029282   0.103783   0.009609   0.115232  -0.047133  -0.618999
     7  C   -0.162816   0.025742  -0.008035  -0.012221   0.017763   0.000778
     8  H   -0.002165  -0.094272  -0.039472   0.002510  -0.000407  -0.032221
               7          8
     1  H   -0.162816  -0.002165
     2  C    0.025742  -0.094272
     3  H   -0.008035  -0.039472
     4  H   -0.012221   0.002510
     5  H    0.017763  -0.000407
     6  H    0.000778  -0.032221
     7  C    1.948677   0.001945
     8  H    0.001945   1.088507
 Mulliken charges and spin densities:
               1          2
     1  H    0.191065  -0.044473
     2  C   -0.540268   0.169241
     3  H    0.207587   0.014388
     4  H    0.106911  -0.401547
     5  H    0.215408  -0.034200
     6  H    0.099644  -0.439668
     7  C   -0.253802   1.811834
     8  H   -0.026545   0.924424
 Sum of Mulliken charges =   0.00000   2.00000
 Mulliken charges and spin densities with hydrogens summed into heavy atoms:
               1          2
     2  C    0.253802   0.188166
     7  C   -0.253802   1.811834
 Electronic spatial extent (au):  <R**2>=            140.2147
 Charge=              0.0000 electrons
 Dipole moment (field-independent basis, Debye):
    X=              1.3387    Y=             -0.7921    Z=              1.2084  Tot=              1.9697
 Quadrupole moment (field-independent basis, Debye-Ang):
   XX=            -21.6919   YY=            -16.3698   ZZ=            -17.6116
   XY=              0.0133   XZ=              0.6990   YZ=             -0.0818
 Traceless Quadrupole moment (field-independent basis, Debye-Ang):
   XX=             -3.1341   YY=              2.1879   ZZ=              0.9462
   XY=              0.0133   XZ=              0.6990   YZ=             -0.0818
 Octapole moment (field-independent basis, Debye-Ang**2):
  XXX=             -3.6993  YYY=             -2.6281  ZZZ=              1.6583  XYY=              1.7186
  XXY=              0.9010  XXZ=              1.2046  XZZ=              0.7452  YZZ=             -0.4380
  YYZ=              0.3662  XYZ=             -0.4910
 Hexadecapole moment (field-independent basis, Debye-Ang**3):
 XXXX=           -173.5406 YYYY=            -34.2504 ZZZZ=            -33.0209 XXXY=              2.6041
 XXXZ=              3.0926 YYYX=             -0.6094 YYYZ=             -0.2863 ZZZX=              0.9515
 ZZZY=             -0.3637 XXYY=            -33.3097 XXZZ=            -34.4361 YYZZ=            -11.9294
 XXYZ=             -0.3716 YYXZ=              0.3041 ZZXY=             -0.1957
 N-N= 3.973217736923D+01 E-N=-2.605658218619D+02  KE= 7.938429834156D+01
                          Isotropic Fermi Contact Couplings
        Atom                 a.u.       MegaHertz       Gauss      10(-4) cm-1
     1  H(1)               0.00514      11.47689       4.09524       3.82828
     2  C(13)              0.15394      86.52918      30.87576      28.86303
     3  H(1)               0.01907      42.61895      15.20750      14.21615
     4  H(1)              -0.10348    -231.27241     -82.52375     -77.14417
     5  H(1)              -0.05198    -116.16148     -41.44930     -38.74730
     6  H(1)              -0.11589    -259.01154     -92.42176     -86.39695
     7  C(13)              0.09813      55.15839      19.68189      18.39886
     8  H(1)               0.24502     547.60396     195.39871     182.66102
 --------------------------------------------------------
       Center         ----  Spin Dipole Couplings  ----
                      3XX-RR        3YY-RR        3ZZ-RR
 --------------------------------------------------------
     1   Atom        0.178957     -0.056701     -0.122256
     2   Atom        0.088914      0.008808     -0.097722
     3   Atom        0.043172     -0.006511     -0.036661
     4   Atom        0.011496     -0.021903      0.010407
     5   Atom        0.076388     -0.046985     -0.029403
     6   Atom        0.013712      0.023927     -0.037638
     7   Atom       -0.928348      0.543118      0.385230
     8   Atom        0.003656     -0.012797      0.009141
 --------------------------------------------------------
                        XY            XZ            YZ
 --------------------------------------------------------
     1   Atom       -0.023798     -0.018198      0.018243
     2   Atom        0.039077     -0.006801      0.030016
     3   Atom       -0.003540     -0.000253     -0.011141
     4   Atom        0.003881      0.011924      0.020470
     5   Atom       -0.031454      0.023095     -0.016078
     6   Atom        0.006617     -0.003571     -0.008037
     7   Atom       -0.093526      0.144760      0.124238
     8   Atom        0.009994      0.002518      0.001835
 --------------------------------------------------------


 ---------------------------------------------------------------------------------
              Anisotropic Spin Dipole Couplings in Principal Axis System
 ---------------------------------------------------------------------------------

       Atom             a.u.   MegaHertz   Gauss  10(-4) cm-1        Axes

              Baa    -0.1274   -68.000   -24.264   -22.682  0.0392 -0.2371  0.9707
     1 H(1)   Bbb    -0.0552   -29.450   -10.508    -9.823  0.1161  0.9659  0.2313
              Bcc     0.1826    97.450    34.772    32.506  0.9925 -0.1037 -0.0654
 
              Baa    -0.1071   -14.367    -5.127    -4.792  0.0886 -0.2777  0.9566
     2 C(13)  Bbb     0.0021     0.284     0.101     0.095 -0.3738  0.8809  0.2903
              Bcc     0.1049    14.083     5.025     4.698  0.9233  0.3833  0.0258
 
              Baa    -0.0404   -21.531    -7.683    -7.182  0.0162  0.3142  0.9492
     3 H(1)   Bbb    -0.0031    -1.640    -0.585    -0.547  0.0707  0.9466 -0.3145
              Bcc     0.0434    23.171     8.268     7.729  0.9974 -0.0722  0.0069
 
              Baa    -0.0319   -17.019    -6.073    -5.677  0.0422  0.8946 -0.4448
     4 H(1)   Bbb     0.0028     1.485     0.530     0.496  0.8155 -0.2881 -0.5020
              Bcc     0.0291    15.533     5.543     5.181  0.5772  0.3415  0.7417
 
              Baa    -0.0588   -31.375   -11.195   -10.466  0.1467  0.9119  0.3834
     5 H(1)   Bbb    -0.0309   -16.509    -5.891    -5.507 -0.2902 -0.3309  0.8979
              Bcc     0.0897    47.884    17.086    15.972  0.9457 -0.2430  0.2161
 
              Baa    -0.0388   -20.708    -7.389    -6.907  0.0521  0.1215  0.9912
     6 H(1)   Bbb     0.0105     5.582     1.992     1.862  0.8990 -0.4379  0.0064
              Bcc     0.0283    15.125     5.397     5.045  0.4349  0.8908 -0.1320
 
              Baa    -0.9517  -127.714   -45.572   -42.601  0.9909  0.0715 -0.1139
     7 C(13)  Bbb     0.3403    45.660    16.293    15.230  0.1342 -0.4718  0.8714
              Bcc     0.6115    82.054    29.279    27.370 -0.0085  0.8788  0.4771
 
              Baa    -0.0175    -9.352    -3.337    -3.119 -0.4244  0.9052 -0.0222
     8 H(1)   Bbb     0.0057     3.030     1.081     1.011  0.6858  0.3053 -0.6606
              Bcc     0.0118     6.322     2.256     2.109  0.5912  0.2956  0.7504
 

 ---------------------------------------------------------------------------------

 PrsmSu:  requested number of processors reduced to:  31 ShMem   1 Linda.
 Calling FoFJK, ICntrl=      2127 FMM=F ISym2X=0 I1Cent= 0 IOpClX= 1 NMat=1 NMatS=1 NMatT=0.
 ***** Axes restored to original set *****
 -------------------------------------------------------------------
 Center     Atomic                   Forces (Hartrees/Bohr)
 Number     Number              X              Y              Z
 -------------------------------------------------------------------
      1        1           0.271521945   -0.348821205   -0.450841471
      2        6          -0.136126045    0.567580702    0.479175828
      3        1           0.002884462    0.063569188    0.000027423
      4        1           0.006644318    0.030507986    0.005433951
      5        1          -0.174543560   -0.231480489    0.040640233
      6        1           0.021891288   -0.036213284    0.003556615
      7        6           0.006925624   -0.061259285   -0.097640053
      8        1           0.000801969    0.016116387    0.019647475
 -------------------------------------------------------------------
 Cartesian Forces:  Max     0.567580702 RMS     0.211688063

 GradGradGradGradGradGradGradGradGradGradGradGradGradGradGradGradGradGrad
 Berny optimization.
 Search for a local minimum.
 Step number   1 out of a maximum of    2
 All quantities printed in internal units (Hartrees-Bohrs-Radians)
 Second derivative matrix not updated -- first step.
 ITU=  0
     Eigenvalues ---    0.08167   0.10013   0.13153   0.20500   0.23389
     Eigenvalues ---    0.32141   0.33200   0.48977   0.53311   0.65706
     Eigenvalues ---    0.79051   0.88003   0.98060   1.00000   1.25471
     Eigenvalues ---    1.43469   2.47671   3.08587
 Quadratic step=1.022D+00 exceeds max=3.000D-01 adjusted using Lamda=-9.707D-01.
 Angle between NR and scaled steps=  44.51 degrees.
 Angle between quadratic step and forces=  23.78 degrees.
 Linear search not attempted -- first point.
 B after Tr=     0.034915    0.070949   -0.031694
         Rot=    0.999999   -0.000996    0.000241   -0.000607 Ang=  -0.14 deg.
 Variable       Old X    -DE/DX   Delta X   Delta X   Delta X     New X
                                 (Linear)    (Quad)   (Total)
    X1       10.39621   0.27152   0.00000   0.07614   0.07532  10.47153
    Y1       15.30408  -0.34882   0.00000  -0.08108  -0.06885  15.23523
    Z1       35.94391  -0.45084   0.00000  -0.11555  -0.11193  35.83198
    X2        9.94338  -0.13613   0.00000  -0.02921  -0.03204   9.91134
    Y2       16.30503   0.56758   0.00000   0.10962   0.11886  16.42389
    Z2       36.86478   0.47918   0.00000   0.12387   0.12958  36.99436
    X3       11.06724   0.00288   0.00000   0.00481   0.00289  11.07013
    Y3       15.03166   0.06357   0.00000   0.05526   0.06299  15.09465
    Z3       38.44345   0.00003   0.00000   0.00836   0.01199  38.45544
    X4        7.34098   0.00664   0.00000   0.00619   0.00366   7.34464
    Y4       16.00194   0.03051   0.00000   0.02983   0.03527  16.03721
    Z4       37.32058   0.00543   0.00000   0.01168   0.01539  37.33597
    X5        9.11789  -0.17454   0.00000  -0.07657  -0.07727   9.04062
    Y5       14.79346  -0.23148   0.00000  -0.10879  -0.10050  14.69296
    Z5       36.91334   0.04064   0.00000   0.02143   0.02328  36.93662
    X6        9.39732   0.02189   0.00000   0.01747   0.01145   9.40877
    Y6       19.19055  -0.03621   0.00000  -0.02179  -0.01254  19.17800
    Z6       36.67694   0.00356   0.00000  -0.00130   0.00966  36.68660
    X7       10.25216   0.00693   0.00000   0.01563   0.01716  10.26933
    Y7       14.08848  -0.06126   0.00000  -0.05987  -0.04415  14.04432
    Z7       34.05116  -0.09764   0.00000  -0.09611  -0.09497  33.95619
    X8       10.54416   0.00080   0.00000   0.00524  -0.00117  10.54299
    Y8       18.20876   0.01612   0.00000   0.00473   0.00893  18.21768
    Z8       39.89571   0.01965   0.00000   0.00740   0.01700  39.91271
         Item               Value     Threshold  Converged?
 Maximum Force            0.567581     0.000450     NO 
 RMS     Force            0.211688     0.000300     NO 
 Maximum Displacement     0.129582     0.001800     NO 
 RMS     Displacement     0.060941     0.001200     NO 
 Predicted change in Energy=-1.864138D-01
 GradGradGradGradGradGradGradGradGradGradGradGradGradGradGradGradGradGrad

 1\1\GINC-H08R06\Force\UB3LYP\3-21G*\C2H6(3)\ACKGYDJ0BD\09-Jul-2026\0\\
 #force b3lyp/3-21G* Geom=PrintInputOrient\\Generated by MDDatasetMaker
  (Author: Jinzhe Zeng)\\0,3\H,5.50144,8.09857,19.0207\C,5.26181,8.6282
 5,19.508\H,5.85653,7.95441,20.3434\H,3.88468,8.46786,19.7492\H,4.82498
 ,7.82836,19.5337\H,4.97285,10.1552,19.4086\C,5.42521,7.4553,18.0191\H,
 5.57973,9.63566,21.1119\\Version=EM64L-G16RevB.01\State=3-A\HF=-78.433
 6262\S2=2.689671\S2-1=0.\S2A=2.018507\RMSD=6.534e-09\RMSF=2.117e-01\Di
 pole=-0.290713,-0.0750553,0.7144126\Quadrupole=0.9384153,-0.3635492,-0
 .5748661,-0.4025433,0.0664305,-1.9290018\PG=C01 [X(C2H6)]\\@


 I LOVE THOSE WHO LONG FOR THE IMPOSSIBLE.

                                 -- GOETHE
 Job cpu time:       0 days  0 hours  3 minutes 11.2 seconds.
 Elapsed time:       0 days  0 hours  0 minutes  3.9 seconds.
 File lengths (MBytes):  RWF=      6 Int=      0 D2E=      0 Chk=      1 Scr=      1
 Normal termination of Gaussian 16 at Thu Jul  9 10:26:46 2026.
