 Entering Gaussian System, Link 0=g16
 Input=loop1_C11_00.gjf
 Output=loop1_C11_00.log
 Initial command:
 /work/home/ackgydj0bd/apprepo/gaussian/16b.01-none_v1.3/app/g16/l1.exe "/work/home/ackgydj0bd/apprepo/gaussian/16b.01-none_v1.3/app/g16/scratch/Gau-238545.inp" -scrdir="/work/home/ackgydj0bd/apprepo/gaussian/16b.01-none_v1.3/app/g16/scratch/"
 Entering Link 1 = /work/home/ackgydj0bd/apprepo/gaussian/16b.01-none_v1.3/app/g16/l1.exe PID=    238546.
  
 Copyright (c) 1988-2017, Gaussian, Inc.  All Rights Reserved.
  
 This is part of the Gaussian(R) 16 program.  It is based on
 the Gaussian(R) 09 system (copyright 2009, Gaussian, Inc.),
 the Gaussian(R) 03 system (copyright 2003, Gaussian, Inc.),
 the Gaussian(R) 98 system (copyright 1998, Gaussian, Inc.),
 the Gaussian(R) 94 system (copyright 1995, Gaussian, Inc.),
 the Gaussian 92(TM) system (copyright 1992, Gaussian, Inc.),
 the Gaussian 90(TM) system (copyright 1990, Gaussian, Inc.),
 the Gaussian 88(TM) system (copyright 1988, Gaussian, Inc.),
 the Gaussian 86(TM) system (copyright 1986, Carnegie Mellon
 University), and the Gaussian 82(TM) system (copyright 1983,
 Carnegie Mellon University). Gaussian is a federally registered
 trademark of Gaussian, Inc.
  
 This software contains proprietary and confidential information,
 including trade secrets, belonging to Gaussian, Inc.
  
 This software is provided under written license and may be
 used, copied, transmitted, or stored only in accord with that
 written license.
  
 The following legend is applicable only to US Government
 contracts under FAR:
  
                    RESTRICTED RIGHTS LEGEND
  
 Use, reproduction and disclosure by the US Government is
 subject to restrictions as set forth in subparagraphs (a)
 and (c) of the Commercial Computer Software - Restricted
 Rights clause in FAR 52.227-19.
  
 Gaussian, Inc.
 340 Quinnipiac St., Bldg. 40, Wallingford CT 06492
  
  
 ---------------------------------------------------------------
 Warning -- This program may not be used in any manner that
 competes with the business of Gaussian, Inc. or will provide
 assistance to any competitor of Gaussian, Inc.  The licensee
 of this program is prohibited from giving any competitor of
 Gaussian, Inc. access to this program.  By using this program,
 the user acknowledges that Gaussian, Inc. is engaged in the
 business of creating and licensing software in the field of
 computational chemistry and represents and warrants to the
 licensee that it is not a competitor of Gaussian, Inc. and that
 it will not use this program in any manner prohibited above.
 ---------------------------------------------------------------
  

 Cite this work as:
 Gaussian 16, Revision B.01,
 M. J. Frisch, G. W. Trucks, H. B. Schlegel, G. E. Scuseria, 
 M. A. Robb, J. R. Cheeseman, G. Scalmani, V. Barone, 
 G. A. Petersson, H. Nakatsuji, X. Li, M. Caricato, A. V. Marenich, 
 J. Bloino, B. G. Janesko, R. Gomperts, B. Mennucci, H. P. Hratchian, 
 J. V. Ortiz, A. F. Izmaylov, J. L. Sonnenberg, D. Williams-Young, 
 F. Ding, F. Lipparini, F. Egidi, J. Goings, B. Peng, A. Petrone, 
 T. Henderson, D. Ranasinghe, V. G. Zakrzewski, J. Gao, N. Rega, 
 G. Zheng, W. Liang, M. Hada, M. Ehara, K. Toyota, R. Fukuda, 
 J. Hasegawa, M. Ishida, T. Nakajima, Y. Honda, O. Kitao, H. Nakai, 
 T. Vreven, K. Throssell, J. A. Montgomery, Jr., J. E. Peralta, 
 F. Ogliaro, M. J. Bearpark, J. J. Heyd, E. N. Brothers, K. N. Kudin, 
 V. N. Staroverov, T. A. Keith, R. Kobayashi, J. Normand, 
 K. Raghavachari, A. P. Rendell, J. C. Burant, S. S. Iyengar, 
 J. Tomasi, M. Cossi, J. M. Millam, M. Klene, C. Adamo, R. Cammi, 
 J. W. Ochterski, R. L. Martin, K. Morokuma, O. Farkas, 
 J. B. Foresman, and D. J. Fox, Gaussian, Inc., Wallingford CT, 2016.
 
 ******************************************
 Gaussian 16:  EM64L-G16RevB.01 20-Dec-2017
                 9-Jul-2026 
 ******************************************
 %nproc=64
 Will use up to   64 processors via shared memory.
 -----------------------------------------
 #force b3lyp/3-21G* Geom=PrintInputOrient
 -----------------------------------------
 1/10=7,30=1,38=1/1,3;
 2/9=2000,12=2,17=6,18=5,40=1/2;
 3/5=5,7=1,11=2,25=1,30=1,71=1,74=-5/1,2,3;
 4//1;
 5/5=2,38=5/2;
 6/7=2,8=2,9=2,10=2,28=1/1;
 7/29=1/1,2,3,16;
 1/10=7,30=1/3;
 99//99;
 -------------------------------------------------
 Generated by MDDatasetMaker (Author: Jinzhe Zeng)
 -------------------------------------------------
 Symbolic Z-matrix:
 Charge =  0 Multiplicity = 1
 C                     1.78398   22.3007   12.0638 
 O                     1.82313   22.7518   13.3373 
 O                     1.70884   23.9079   13.1492 
 O                     2.5002    23.4683   10.9702 
 

 GradGradGradGradGradGradGradGradGradGradGradGradGradGradGradGradGradGrad
 Berny optimization.
 Initialization pass.
 Trust Radius=3.00D-01 FncErr=1.00D-07 GrdErr=1.00D-07 EigMax=2.50D+02 EigMin=1.00D-04
 Number of steps in this run=      2 maximum allowed number of steps=      2.
 GradGradGradGradGradGradGradGradGradGradGradGradGradGradGradGradGradGrad

                          Input orientation:                          
 ---------------------------------------------------------------------
 Center     Atomic      Atomic             Coordinates (Angstroms)
 Number     Number       Type             X           Y           Z
 ---------------------------------------------------------------------
      1          6           0        1.783980   22.300700   12.063800
      2          8           0        1.823130   22.751800   13.337300
      3          8           0        1.708840   23.907900   13.149200
      4          8           0        2.500200   23.468300   10.970200
 ---------------------------------------------------------------------
                    Distance matrix (angstroms):
                    1          2          3          4
     1  C    0.000000
     2  O    1.351601   0.000000
     3  O    1.940833   1.176865   0.000000
     4  O    1.752775   2.564168   2.359563   0.000000
 Stoichiometry    CO3
 Framework group  C1[X(CO3)]
 Deg. of freedom     6
 Full point group                 C1      NOp   1
 Largest Abelian subgroup         C1      NOp   1
 Largest concise Abelian subgroup C1      NOp   1
                         Standard orientation:                         
 ---------------------------------------------------------------------
 Center     Atomic      Atomic             Coordinates (Angstroms)
 Number     Number       Type             X           Y           Z
 ---------------------------------------------------------------------
      1          6           0        0.240825    0.891528    0.184242
      2          8           0       -0.950988    0.361444   -0.169902
      3          8           0       -0.763804   -0.767214    0.105970
      4          8           0        1.534174   -0.262877   -0.074250
 ---------------------------------------------------------------------
 Rotational constants (GHZ):          21.7045009           7.9868050           5.9958916
 Standard basis: 3-21G* (6D, 7F)
 There are    36 symmetry adapted cartesian basis functions of A   symmetry.
 There are    36 symmetry adapted basis functions of A   symmetry.
    36 basis functions,    60 primitive gaussians,    36 cartesian basis functions
    15 alpha electrons       15 beta electrons
       nuclear repulsion energy       102.7106606917 Hartrees.
 NAtoms=    4 NActive=    4 NUniq=    4 SFac= 1.00D+00 NAtFMM=   60 NAOKFM=F Big=F
 Integral buffers will be    131072 words long.
 Raffenetti 2 integral format.
 Two-electron integral symmetry is turned on.
 One-electron integrals computed using PRISM.
 PrsmSu:  requested number of processors reduced to:  31 ShMem   1 Linda.
 NBasis=    36 RedAO= T EigKep=  3.95D-02  NBF=    36
 NBsUse=    36 1.00D-06 EigRej= -1.00D+00 NBFU=    36
 ExpMin= 1.96D-01 ExpMax= 3.22D+02 ExpMxC= 3.22D+02 IAcc=3 IRadAn=         5 AccDes= 0.00D+00
 Harris functional with IExCor=  402 and IRadAn=       5 diagonalized for initial guess.
 HarFok:  IExCor=  402 AccDes= 0.00D+00 IRadAn=         5 IDoV= 1 UseB2=F ITyADJ=14
 ICtDFT=  3500011 ScaDFX=  1.000000  1.000000  1.000000  1.000000
 FoFCou: FMM=F IPFlag=           0 FMFlag=      100000 FMFlg1=           0
         NFxFlg=           0 DoJE=T BraDBF=F KetDBF=T FulRan=T
         wScrn=  0.000000 ICntrl=       500 IOpCl=  0 I1Cent=   200000004 NGrid=           0
         NMat0=    1 NMatS0=      1 NMatT0=    0 NMatD0=    1 NMtDS0=    0 NMtDT0=    0
 Petite list used in FoFCou.
 Keep R1 ints in memory in canonical form, NReq=55517791.
 Requested convergence on RMS density matrix=1.00D-08 within 128 cycles.
 Requested convergence on MAX density matrix=1.00D-06.
 Requested convergence on             energy=1.00D-06.
 No special actions if energy rises.
 Integral accuracy reduced to 1.0D-05 until final iterations.
 EnCoef did     2 forward-backward iterations
 EnCoef did     2 forward-backward iterations
 Initial convergence to 1.0D-05 achieved.  Increase integral accuracy.
 SCF Done:  E(RB3LYP) =  -261.831529821     A.U. after   25 cycles
            NFock= 25  Conv=0.70D-08     -V/T= 2.0062

 **********************************************************************

            Population analysis using the SCF Density.

 **********************************************************************

 Orbital symmetries:
       Occupied  (A) (A) (A) (A) (A) (A) (A) (A) (A) (A) (A) (A)
                 (A) (A) (A)
       Virtual   (A) (A) (A) (A) (A) (A) (A) (A) (A) (A) (A) (A)
                 (A) (A) (A) (A) (A) (A) (A) (A) (A)
 The electronic state is 1-A.
 Alpha  occ. eigenvalues --  -19.29734 -19.15875 -19.11340 -10.32936  -1.43946
 Alpha  occ. eigenvalues --   -0.95801  -0.91695  -0.68871  -0.61332  -0.56850
 Alpha  occ. eigenvalues --   -0.46785  -0.35854  -0.32336  -0.29253  -0.27987
 Alpha virt. eigenvalues --   -0.21365  -0.12448  -0.00669   0.15705   0.23618
 Alpha virt. eigenvalues --    0.65838   0.66946   0.70810   1.09563   1.27415
 Alpha virt. eigenvalues --    1.31521   1.35970   1.39652   1.44143   1.50038
 Alpha virt. eigenvalues --    1.53270   1.55175   1.64667   2.51370   2.66316
 Alpha virt. eigenvalues --    2.99380
          Condensed to atoms (all electrons):
               1          2          3          4
     1  C    5.427910   0.085409  -0.110472   0.236852
     2  O    0.085409   8.122712  -0.071460  -0.012660
     3  O   -0.110472  -0.071460   8.258832  -0.011546
     4  O    0.236852  -0.012660  -0.011546   7.958302
 Mulliken charges:
               1
     1  C    0.360302
     2  O   -0.124000
     3  O   -0.065354
     4  O   -0.170948
 Sum of Mulliken charges =   0.00000
 Mulliken charges with hydrogens summed into heavy atoms:
               1
     1  C    0.360302
     2  O   -0.124000
     3  O   -0.065354
     4  O   -0.170948
 Electronic spatial extent (au):  <R**2>=            201.0730
 Charge=              0.0000 electrons
 Dipole moment (field-independent basis, Debye):
    X=             -1.4569    Y=              0.6884    Z=             -0.3979  Tot=              1.6598
 Quadrupole moment (field-independent basis, Debye-Ang):
   XX=            -23.4319   YY=            -21.4866   ZZ=            -20.3191
   XY=             -0.6734   XZ=             -0.2595   YZ=             -0.4951
 Traceless Quadrupole moment (field-independent basis, Debye-Ang):
   XX=             -1.6861   YY=              0.2593   ZZ=              1.4268
   XY=             -0.6734   XZ=             -0.2595   YZ=             -0.4951
 Octapole moment (field-independent basis, Debye-Ang**2):
  XXX=             -5.2086  YYY=             -6.8061  ZZZ=             -1.4954  XYY=              0.0639
  XXY=             -1.8701  XXZ=             -0.3943  XZZ=             -1.6456  YZZ=             -2.1316
  YYZ=             -1.9705  XYZ=             -0.6976
 Hexadecapole moment (field-independent basis, Debye-Ang**3):
 XXXX=           -139.0326 YYYY=            -66.6837 ZZZZ=            -16.7421 XXXY=             -2.2765
 XXXZ=             -1.0222 YYYX=             -4.2090 YYYZ=             -3.2582 ZZZX=             -0.3057
 ZZZY=             -1.7393 XXYY=            -32.7894 XXZZ=            -25.0280 YYZZ=            -14.0789
 XXYZ=             -0.1046 YYXZ=             -0.2537 ZZXY=             -0.4925
 N-N= 1.027106606917D+02 E-N=-8.218138655344D+02  KE= 2.602140381552D+02
 PrsmSu:  requested number of processors reduced to:  31 ShMem   1 Linda.
 Calling FoFJK, ICntrl=      2127 FMM=F ISym2X=0 I1Cent= 0 IOpClX= 0 NMat=1 NMatS=1 NMatT=0.
 ***** Axes restored to original set *****
 -------------------------------------------------------------------
 Center     Atomic                   Forces (Hartrees/Bohr)
 Number     Number              X              Y              Z
 -------------------------------------------------------------------
      1        6           0.042733743    0.027934436   -0.135196372
      2        8           0.053796962   -0.274490292    0.031097472
      3        8          -0.052130039    0.350282813    0.019323822
      4        8          -0.044400666   -0.103726957    0.084775079
 -------------------------------------------------------------------
 Cartesian Forces:  Max     0.350282813 RMS     0.143119171

 GradGradGradGradGradGradGradGradGradGradGradGradGradGradGradGradGradGrad
 Berny optimization.
 Search for a local minimum.
 Step number   1 out of a maximum of    2
 All quantities printed in internal units (Hartrees-Bohrs-Radians)
 Second derivative matrix not updated -- first step.
 The second derivative matrix:
                          X1        Y1        Z1        X2        Y2
           X1           0.04605
           Y1           0.07164   0.23075
           Z1          -0.01672   0.10887   0.55386
           X2          -0.01871  -0.01906  -0.02262   0.03017
           Y2          -0.02109  -0.12995  -0.17161  -0.09707   1.24194
           Z2          -0.01354  -0.10391  -0.50048   0.03640  -0.06423
           X3           0.00540  -0.00401   0.00125  -0.01833   0.11369
           Y3           0.00121  -0.00700   0.00244   0.11021  -1.12713
           Z3           0.00418  -0.04057   0.01424  -0.02461   0.21675
           X4          -0.03274  -0.04856   0.03809   0.00686   0.00448
           Y4          -0.05176  -0.09380   0.06029   0.00593   0.01514
           Z4           0.02608   0.03560  -0.06762   0.01083   0.01909
                          Z2        X3        Y3        Z3        X4
           Z2           0.60091
           X3          -0.02107   0.01599
           Y3           0.17369  -0.11115   1.13400
           Z3          -0.09333   0.02024  -0.17609   0.07906
           X4          -0.00180  -0.00305  -0.00027   0.00019   0.02893
           Y4          -0.00554   0.00147   0.00013  -0.00009   0.04436
           Z4          -0.00710  -0.00043  -0.00004   0.00003  -0.03648
                          Y4        Z4
           Y4           0.07854
           Z4          -0.05466   0.07469
 ITU=  0
     Eigenvalues ---    0.01755   0.05277   0.16179   0.35138   1.13006
     Eigenvalues ---    2.39567
 Quadratic step=3.042D+00 exceeds max=3.000D-01 adjusted using Lamda=-6.312D-01.
 Angle between NR and scaled steps=  55.60 degrees.
 Angle between quadratic step and forces=  34.35 degrees.
 Linear search not attempted -- first point.
 B after Tr=    -0.028906   -0.035792    0.074819
         Rot=    1.000000    0.000777   -0.000304    0.000152 Ang=   0.10 deg.
 Variable       Old X    -DE/DX   Delta X   Delta X   Delta X     New X
                                 (Linear)    (Quad)   (Total)
    X1        3.37123   0.04273   0.00000   0.04315   0.04080   3.41204
    Y1       42.14222   0.02793   0.00000   0.01857   0.01689  42.15911
    Z1       22.79728  -0.13520   0.00000  -0.13963  -0.13244  22.66484
    X2        3.44522   0.05380   0.00000   0.04681   0.04621   3.49143
    Y2       42.99467  -0.27449   0.00000  -0.06627  -0.06410  42.93057
    Z2       25.20384   0.03110   0.00000  -0.05491  -0.04897  25.15488
    X3        3.22924  -0.05213   0.00000  -0.04362  -0.04362   3.18562
    Y3       45.17938   0.35028   0.00000   0.16390   0.16583  45.34521
    Z3       24.84839   0.01932   0.00000   0.08488   0.08726  24.93564
    X4        4.72469  -0.04440   0.00000  -0.04056  -0.04340   4.68130
    Y4       44.34866  -0.10373   0.00000  -0.11371  -0.11862  44.23004
    Z4       20.73067   0.08478   0.00000   0.09096   0.09415  20.82483
         Item               Value     Threshold  Converged?
 Maximum Force            0.350283     0.000450     NO 
 RMS     Force            0.143119     0.000300     NO 
 Maximum Displacement     0.165830     0.001800     NO 
 RMS     Displacement     0.086587     0.001200     NO 
 Predicted change in Energy=-8.987707D-02
 GradGradGradGradGradGradGradGradGradGradGradGradGradGradGradGradGradGrad

 1\1\GINC-H08R06\Force\RB3LYP\3-21G*\C1O3\ACKGYDJ0BD\09-Jul-2026\0\\#fo
 rce b3lyp/3-21G* Geom=PrintInputOrient\\Generated by MDDatasetMaker (A
 uthor: Jinzhe Zeng)\\0,1\C,1.78398,22.3007,12.0638\O,1.82313,22.7518,1
 3.3373\O,1.70884,23.9079,13.1492\O,2.5002,23.4683,10.9702\\Version=EM6
 4L-G16RevB.01\State=1-A\HF=-261.8315298\RMSD=6.990e-09\RMSF=1.431e-01\
 Dipole=-0.0385661,-0.3046239,0.5763174\Quadrupole=0.9338488,0.304522,-
 1.2383708,-0.2961336,0.4112584,-0.5332121\PG=C01 [X(C1O3)]\\@


 "A LITTLE BIT GOES A LONG WAY"
 R.S. MULLIKEN AS QUOTED BY K. RUEDENBERG
 Job cpu time:       0 days  0 hours  3 minutes  8.0 seconds.
 Elapsed time:       0 days  0 hours  0 minutes  3.8 seconds.
 File lengths (MBytes):  RWF=      6 Int=      0 D2E=      0 Chk=      1 Scr=      1
 Normal termination of Gaussian 16 at Thu Jul  9 10:26:21 2026.
