 Entering Gaussian System, Link 0=g16
 Input=loop1_H1_05.gjf
 Output=loop1_H1_05.log
 Initial command:
 /work/home/ackgydj0bd/apprepo/gaussian/16b.01-none_v1.3/app/g16/l1.exe "/work/home/ackgydj0bd/apprepo/gaussian/16b.01-none_v1.3/app/g16/scratch/Gau-11232.inp" -scrdir="/work/home/ackgydj0bd/apprepo/gaussian/16b.01-none_v1.3/app/g16/scratch/"
 Entering Link 1 = /work/home/ackgydj0bd/apprepo/gaussian/16b.01-none_v1.3/app/g16/l1.exe PID=     11233.
  
 Copyright (c) 1988-2017, Gaussian, Inc.  All Rights Reserved.
  
 This is part of the Gaussian(R) 16 program.  It is based on
 the Gaussian(R) 09 system (copyright 2009, Gaussian, Inc.),
 the Gaussian(R) 03 system (copyright 2003, Gaussian, Inc.),
 the Gaussian(R) 98 system (copyright 1998, Gaussian, Inc.),
 the Gaussian(R) 94 system (copyright 1995, Gaussian, Inc.),
 the Gaussian 92(TM) system (copyright 1992, Gaussian, Inc.),
 the Gaussian 90(TM) system (copyright 1990, Gaussian, Inc.),
 the Gaussian 88(TM) system (copyright 1988, Gaussian, Inc.),
 the Gaussian 86(TM) system (copyright 1986, Carnegie Mellon
 University), and the Gaussian 82(TM) system (copyright 1983,
 Carnegie Mellon University). Gaussian is a federally registered
 trademark of Gaussian, Inc.
  
 This software contains proprietary and confidential information,
 including trade secrets, belonging to Gaussian, Inc.
  
 This software is provided under written license and may be
 used, copied, transmitted, or stored only in accord with that
 written license.
  
 The following legend is applicable only to US Government
 contracts under FAR:
  
                    RESTRICTED RIGHTS LEGEND
  
 Use, reproduction and disclosure by the US Government is
 subject to restrictions as set forth in subparagraphs (a)
 and (c) of the Commercial Computer Software - Restricted
 Rights clause in FAR 52.227-19.
  
 Gaussian, Inc.
 340 Quinnipiac St., Bldg. 40, Wallingford CT 06492
  
  
 ---------------------------------------------------------------
 Warning -- This program may not be used in any manner that
 competes with the business of Gaussian, Inc. or will provide
 assistance to any competitor of Gaussian, Inc.  The licensee
 of this program is prohibited from giving any competitor of
 Gaussian, Inc. access to this program.  By using this program,
 the user acknowledges that Gaussian, Inc. is engaged in the
 business of creating and licensing software in the field of
 computational chemistry and represents and warrants to the
 licensee that it is not a competitor of Gaussian, Inc. and that
 it will not use this program in any manner prohibited above.
 ---------------------------------------------------------------
  

 Cite this work as:
 Gaussian 16, Revision B.01,
 M. J. Frisch, G. W. Trucks, H. B. Schlegel, G. E. Scuseria, 
 M. A. Robb, J. R. Cheeseman, G. Scalmani, V. Barone, 
 G. A. Petersson, H. Nakatsuji, X. Li, M. Caricato, A. V. Marenich, 
 J. Bloino, B. G. Janesko, R. Gomperts, B. Mennucci, H. P. Hratchian, 
 J. V. Ortiz, A. F. Izmaylov, J. L. Sonnenberg, D. Williams-Young, 
 F. Ding, F. Lipparini, F. Egidi, J. Goings, B. Peng, A. Petrone, 
 T. Henderson, D. Ranasinghe, V. G. Zakrzewski, J. Gao, N. Rega, 
 G. Zheng, W. Liang, M. Hada, M. Ehara, K. Toyota, R. Fukuda, 
 J. Hasegawa, M. Ishida, T. Nakajima, Y. Honda, O. Kitao, H. Nakai, 
 T. Vreven, K. Throssell, J. A. Montgomery, Jr., J. E. Peralta, 
 F. Ogliaro, M. J. Bearpark, J. J. Heyd, E. N. Brothers, K. N. Kudin, 
 V. N. Staroverov, T. A. Keith, R. Kobayashi, J. Normand, 
 K. Raghavachari, A. P. Rendell, J. C. Burant, S. S. Iyengar, 
 J. Tomasi, M. Cossi, J. M. Millam, M. Klene, C. Adamo, R. Cammi, 
 J. W. Ochterski, R. L. Martin, K. Morokuma, O. Farkas, 
 J. B. Foresman, and D. J. Fox, Gaussian, Inc., Wallingford CT, 2016.
 
 ******************************************
 Gaussian 16:  EM64L-G16RevB.01 20-Dec-2017
                 9-Jul-2026 
 ******************************************
 %nproc=64
 Will use up to   64 processors via shared memory.
 -----------------------------------------
 #force b3lyp/3-21G* Geom=PrintInputOrient
 -----------------------------------------
 1/10=7,30=1,38=1/1,3;
 2/9=2000,12=2,17=6,18=5,40=1/2;
 3/5=5,7=1,11=2,25=1,30=1,71=1,74=-5/1,2,3;
 4//1;
 5/5=2,38=5/2;
 6/7=2,8=2,9=2,10=2,28=1/1;
 7/29=1/1,2,3,16;
 1/10=7,30=1/3;
 99//99;
 -------------------------------------------------
 Generated by MDDatasetMaker (Author: Jinzhe Zeng)
 -------------------------------------------------
 Symbolic Z-matrix:
 Charge =  0 Multiplicity = 1
 C                     6.919     14.703    12.625 
 H                     6.451     15.011    13.536 
 H                     7.083     13.646    12.647 
 H                     7.856     15.208    12.515 
 H                     6.284     14.948    11.798 
 

 GradGradGradGradGradGradGradGradGradGradGradGradGradGradGradGradGradGrad
 Berny optimization.
 Initialization pass.
 Trust Radius=3.00D-01 FncErr=1.00D-07 GrdErr=1.00D-07 EigMax=2.50D+02 EigMin=1.00D-04
 Number of steps in this run=      2 maximum allowed number of steps=      2.
 GradGradGradGradGradGradGradGradGradGradGradGradGradGradGradGradGradGrad

                          Input orientation:                          
 ---------------------------------------------------------------------
 Center     Atomic      Atomic             Coordinates (Angstroms)
 Number     Number       Type             X           Y           Z
 ---------------------------------------------------------------------
      1          6           0        6.919000   14.703000   12.625000
      2          1           0        6.451000   15.011000   13.536000
      3          1           0        7.083000   13.646000   12.647000
      4          1           0        7.856000   15.208000   12.515000
      5          1           0        6.284000   14.948000   11.798000
 ---------------------------------------------------------------------
                    Distance matrix (angstroms):
                    1          2          3          4          5
     1  C    0.000000
     2  H    1.069490   0.000000
     3  H    1.069873   1.747275   0.000000
     4  H    1.070091   1.747934   1.747798   0.000000
     5  H    1.071064   1.747141   1.747686   1.747247   0.000000
 Stoichiometry    CH4
 Framework group  C1[X(CH4)]
 Deg. of freedom     9
 Full point group                 C1      NOp   1
 Largest Abelian subgroup         C1      NOp   1
 Largest concise Abelian subgroup C1      NOp   1
                         Standard orientation:                         
 ---------------------------------------------------------------------
 Center     Atomic      Atomic             Coordinates (Angstroms)
 Number     Number       Type             X           Y           Z
 ---------------------------------------------------------------------
      1          6           0       -0.000187    0.000219   -0.000357
      2          1           0       -0.558772   -0.556276   -0.722925
      3          1           0       -0.607429    0.789865    0.389957
      4          1           0        0.871299    0.414571   -0.462870
      5          1           0        0.296023   -0.649475    0.797977
 ---------------------------------------------------------------------
 Rotational constants (GHZ):         164.2649137         164.2127323         164.1421312
 Standard basis: 3-21G* (6D, 7F)
 There are    17 symmetry adapted cartesian basis functions of A   symmetry.
 There are    17 symmetry adapted basis functions of A   symmetry.
    17 basis functions,    27 primitive gaussians,    17 cartesian basis functions
     5 alpha electrons        5 beta electrons
       nuclear repulsion energy        13.6848645385 Hartrees.
 NAtoms=    5 NActive=    5 NUniq=    5 SFac= 1.00D+00 NAtFMM=   60 NAOKFM=F Big=F
 Integral buffers will be    131072 words long.
 Raffenetti 2 integral format.
 Two-electron integral symmetry is turned on.
 One-electron integrals computed using PRISM.
 PrsmSu:  requested number of processors reduced to:  31 ShMem   1 Linda.
 NBasis=    17 RedAO= T EigKep=  3.16D-02  NBF=    17
 NBsUse=    17 1.00D-06 EigRej= -1.00D+00 NBFU=    17
 ExpMin= 1.83D-01 ExpMax= 1.72D+02 ExpMxC= 1.72D+02 IAcc=3 IRadAn=         5 AccDes= 0.00D+00
 Harris functional with IExCor=  402 and IRadAn=       5 diagonalized for initial guess.
 HarFok:  IExCor=  402 AccDes= 0.00D+00 IRadAn=         5 IDoV= 1 UseB2=F ITyADJ=14
 ICtDFT=  3500011 ScaDFX=  1.000000  1.000000  1.000000  1.000000
 FoFCou: FMM=F IPFlag=           0 FMFlag=      100000 FMFlg1=           0
         NFxFlg=           0 DoJE=T BraDBF=F KetDBF=T FulRan=T
         wScrn=  0.000000 ICntrl=       500 IOpCl=  0 I1Cent=   200000004 NGrid=           0
         NMat0=    1 NMatS0=      1 NMatT0=    0 NMatD0=    1 NMtDS0=    0 NMtDT0=    0
 Petite list used in FoFCou.
 Keep R1 ints in memory in canonical form, NReq=55236554.
 Requested convergence on RMS density matrix=1.00D-08 within 128 cycles.
 Requested convergence on MAX density matrix=1.00D-06.
 Requested convergence on             energy=1.00D-06.
 No special actions if energy rises.
 Integral accuracy reduced to 1.0D-05 until final iterations.
 Initial convergence to 1.0D-05 achieved.  Increase integral accuracy.
 SCF Done:  E(RB3LYP) =  -40.3001759816     A.U. after    8 cycles
            NFock=  8  Conv=0.88D-08     -V/T= 2.0075

 **********************************************************************

            Population analysis using the SCF Density.

 **********************************************************************

 Orbital symmetries:
       Occupied  (A) (A) (A) (A) (A)
       Virtual   (A) (A) (A) (A) (A) (A) (A) (A) (A) (A) (A) (A)
 The electronic state is 1-A.
 Alpha  occ. eigenvalues --  -10.09020  -0.69703  -0.39312  -0.39300  -0.39252
 Alpha virt. eigenvalues --    0.15267   0.20164   0.20203   0.20216   0.69596
 Alpha virt. eigenvalues --    0.69619   0.69637   1.05729   1.07415   1.07505
 Alpha virt. eigenvalues --    1.07535   1.70661
          Condensed to atoms (all electrons):
               1          2          3          4          5
     1  C    5.301592   0.370546   0.370515   0.370498   0.370296
     2  H    0.370546   0.513625  -0.026749  -0.026677  -0.026802
     3  H    0.370515  -0.026749   0.513758  -0.026712  -0.026752
     4  H    0.370498  -0.026677  -0.026712   0.513835  -0.026817
     5  H    0.370296  -0.026802  -0.026752  -0.026817   0.514500
 Mulliken charges:
               1
     1  C   -0.783447
     2  H    0.196057
     3  H    0.195940
     4  H    0.195873
     5  H    0.195576
 Sum of Mulliken charges =   0.00000
 Mulliken charges with hydrogens summed into heavy atoms:
               1
     1  C    0.000000
 Electronic spatial extent (au):  <R**2>=             34.6348
 Charge=              0.0000 electrons
 Dipole moment (field-independent basis, Debye):
    X=              0.0001    Y=             -0.0006    Z=              0.0005  Tot=              0.0008
 Quadrupole moment (field-independent basis, Debye-Ang):
   XX=             -8.1919   YY=             -8.1942   ZZ=             -8.1968
   XY=              0.0007   XZ=             -0.0002   YZ=              0.0021
 Traceless Quadrupole moment (field-independent basis, Debye-Ang):
   XX=              0.0024   YY=              0.0001   ZZ=             -0.0025
   XY=              0.0007   XZ=             -0.0002   YZ=              0.0021
 Octapole moment (field-independent basis, Debye-Ang**2):
  XXX=              0.2086  YYY=              0.0856  ZZZ=              0.0636  XYY=             -0.2020
  XXY=              0.2724  XXZ=             -0.2639  XZZ=             -0.0077  YZZ=             -0.3583
  YYZ=              0.1995  XYZ=             -0.5309
 Hexadecapole moment (field-independent basis, Debye-Ang**3):
 XXXX=            -14.4926 YYYY=            -14.6279 ZZZZ=            -14.5676 XXXY=              0.1919
 XXXZ=             -0.2653 YYYX=             -0.2370 YYYZ=              0.0740 ZZZX=              0.2562
 ZZZY=             -0.1183 XXYY=             -4.5931 XXZZ=             -4.6536 YYZZ=             -4.5202
 XXYZ=              0.0531 YYXZ=              0.0081 ZZXY=              0.0480
 N-N= 1.368486453852D+01 E-N=-1.200091633788D+02  KE= 3.999846807007D+01
 PrsmSu:  requested number of processors reduced to:  31 ShMem   1 Linda.
 Calling FoFJK, ICntrl=      2127 FMM=F ISym2X=0 I1Cent= 0 IOpClX= 0 NMat=1 NMatS=1 NMatT=0.
 ***** Axes restored to original set *****
 -------------------------------------------------------------------
 Center     Atomic                   Forces (Hartrees/Bohr)
 Number     Number              X              Y              Z
 -------------------------------------------------------------------
      1        6          -0.000376521    0.000242962   -0.001101680
      2        1          -0.007319486    0.004903040    0.014553089
      3        1           0.002617005   -0.016521792    0.000391968
      4        1           0.014553669    0.007783444   -0.001538893
      5        1          -0.009474667    0.003592346   -0.012304485
 -------------------------------------------------------------------
 Cartesian Forces:  Max     0.016521792 RMS     0.008562039

 GradGradGradGradGradGradGradGradGradGradGradGradGradGradGradGradGradGrad
 Berny optimization.
 Search for a local minimum.
 Step number   1 out of a maximum of    2
 All quantities printed in internal units (Hartrees-Bohrs-Radians)
 Second derivative matrix not updated -- first step.
 The second derivative matrix:
                          X1        Y1        Z1        X2        Y2
           X1           0.70782
           Y1           0.00013   0.70875
           Z1          -0.00158   0.00044   0.70768
           X2          -0.13570   0.03689   0.10946   0.11925
           Y2           0.03689  -0.10401  -0.07200  -0.03949   0.08530
           Z2           0.10941  -0.07197  -0.29237  -0.11698   0.07696
           X3          -0.08642   0.04432  -0.00077   0.00025   0.01530
           Y3           0.04436  -0.36546   0.00598   0.00005   0.00167
           Z3          -0.00077   0.00593  -0.07961   0.00044  -0.03386
           X4          -0.30389  -0.12092   0.02642  -0.00456  -0.00379
           Y4          -0.12096  -0.14475   0.01408   0.01424   0.01147
           Z4           0.02646   0.01410  -0.08252   0.02649   0.02040
           X5          -0.18180   0.03957  -0.13352   0.02077  -0.00891
           Y5           0.03957  -0.09453   0.05151  -0.01169   0.00557
           Z5          -0.13352   0.05151  -0.25318  -0.01941   0.00849
                          Z2        X3        Y3        Z3        X4
           Z2           0.28683
           X3          -0.00505   0.06655
           Y3          -0.00054  -0.04745   0.36497
           Z3           0.01167   0.00089  -0.00638   0.05929
           X4          -0.00106   0.01828   0.00280  -0.00184   0.29916
           Y4           0.00344  -0.03403  -0.00521   0.00353   0.12934
           Z4           0.00671  -0.00052  -0.00007   0.00051  -0.02821
           X5           0.01368   0.00134   0.00023   0.00127  -0.00899
           Y5          -0.00789   0.02185   0.00403   0.03077  -0.00743
           Z5          -0.01284   0.00544   0.00101   0.00814   0.00470
                          Y4        Z4        X5        Y5        Z5
           Y4           0.12890
           Z4          -0.01513   0.06242
           X5           0.01141  -0.02422   0.16868
           Y5           0.00958  -0.01930  -0.04231   0.07534
           Z5          -0.00592   0.01288   0.14278  -0.05509   0.24500
 ITU=  0
     Eigenvalues ---    0.11735   0.11739   0.14135   0.14151   0.14156
     Eigenvalues ---    0.37214   0.86708   0.87015   0.87109
 Angle between quadratic step and forces=   1.75 degrees.
 Linear search not attempted -- first point.
 B after Tr=    -0.000129    0.000063   -0.000249
         Rot=    1.000000    0.000000    0.000000    0.000000 Ang=   0.00 deg.
 Variable       Old X    -DE/DX   Delta X   Delta X   Delta X     New X
                                 (Linear)    (Quad)   (Total)
    X1       13.07502  -0.00038   0.00000  -0.00044  -0.00057  13.07444
    Y1       27.78464   0.00024   0.00000   0.00022   0.00028  27.78492
    Z1       23.85779  -0.00110   0.00000  -0.00086  -0.00111  23.85669
    X2       12.19062  -0.00732   0.00000  -0.01896  -0.01909  12.17153
    Y2       28.36668   0.00490   0.00000   0.01321   0.01327  28.37995
    Z2       25.57933   0.01455   0.00000   0.03879   0.03854  25.61787
    X3       13.38493   0.00262   0.00000   0.00715   0.00702  13.39195
    Y3       25.78720  -0.01652   0.00000  -0.04404  -0.04397  25.74323
    Z3       23.89937   0.00039   0.00000   0.00090   0.00065  23.90001
    X4       14.84569   0.01455   0.00000   0.03905   0.03892  14.88461
    Y4       28.73895   0.00778   0.00000   0.02071   0.02077  28.75973
    Z4       23.64992  -0.00154   0.00000  -0.00359  -0.00384  23.64608
    X5       11.87504  -0.00947   0.00000  -0.02615  -0.02628  11.84876
    Y5       28.24763   0.00359   0.00000   0.00959   0.00965  28.25728
    Z5       22.29499  -0.01230   0.00000  -0.03399  -0.03424  22.26075
         Item               Value     Threshold  Converged?
 Maximum Force            0.016522     0.000450     NO 
 RMS     Force            0.008562     0.000300     NO 
 Maximum Displacement     0.043974     0.001800     NO 
 RMS     Displacement     0.022990     0.001200     NO 
 Predicted change in Energy=-1.475676D-03
 GradGradGradGradGradGradGradGradGradGradGradGradGradGradGradGradGradGrad

 1\1\GINC-H08R06\Force\RB3LYP\3-21G*\C1H4\ACKGYDJ0BD\09-Jul-2026\0\\#fo
 rce b3lyp/3-21G* Geom=PrintInputOrient\\Generated by MDDatasetMaker (A
 uthor: Jinzhe Zeng)\\0,1\C,6.919,14.703,12.625\H,6.451,15.011,13.536\H
 ,7.083,13.646,12.647\H,7.856,15.208,12.515\H,6.284,14.948,11.798\\Vers
 ion=EM64L-G16RevB.01\State=1-A\HF=-40.300176\RMSD=8.808e-09\RMSF=8.562
 e-03\Dipole=-0.0002221,0.0000711,-0.0001896\Quadrupole=-0.0001022,0.00
 0921,-0.0008189,0.0002297,-0.0022587,-0.0002759\PG=C01 [X(C1H4)]\\@


 ALTHOUGH J.J. COULD DIAGNOSE THE FAULTS OF AN
 APPARATUS WITH UNCANNY ACCURACY, IT WAS JUST AS
 WELL NOT TO LET HIM HANDLE IT.
   -- GEORGE THOMPSON, ABOUT HIS FATHER
 Job cpu time:       0 days  0 hours  2 minutes 41.1 seconds.
 Elapsed time:       0 days  0 hours  0 minutes  3.3 seconds.
 File lengths (MBytes):  RWF=      6 Int=      0 D2E=      0 Chk=      1 Scr=      1
 Normal termination of Gaussian 16 at Thu Jul  9 10:28:31 2026.
