 Entering Gaussian System, Link 0=g16
 Input=loop1_O1_01.gjf
 Output=loop1_O1_01.log
 Initial command:
 /work/home/ackgydj0bd/apprepo/gaussian/16b.01-none_v1.3/app/g16/l1.exe "/work/home/ackgydj0bd/apprepo/gaussian/16b.01-none_v1.3/app/g16/scratch/Gau-25485.inp" -scrdir="/work/home/ackgydj0bd/apprepo/gaussian/16b.01-none_v1.3/app/g16/scratch/"
 Entering Link 1 = /work/home/ackgydj0bd/apprepo/gaussian/16b.01-none_v1.3/app/g16/l1.exe PID=     25486.
  
 Copyright (c) 1988-2017, Gaussian, Inc.  All Rights Reserved.
  
 This is part of the Gaussian(R) 16 program.  It is based on
 the Gaussian(R) 09 system (copyright 2009, Gaussian, Inc.),
 the Gaussian(R) 03 system (copyright 2003, Gaussian, Inc.),
 the Gaussian(R) 98 system (copyright 1998, Gaussian, Inc.),
 the Gaussian(R) 94 system (copyright 1995, Gaussian, Inc.),
 the Gaussian 92(TM) system (copyright 1992, Gaussian, Inc.),
 the Gaussian 90(TM) system (copyright 1990, Gaussian, Inc.),
 the Gaussian 88(TM) system (copyright 1988, Gaussian, Inc.),
 the Gaussian 86(TM) system (copyright 1986, Carnegie Mellon
 University), and the Gaussian 82(TM) system (copyright 1983,
 Carnegie Mellon University). Gaussian is a federally registered
 trademark of Gaussian, Inc.
  
 This software contains proprietary and confidential information,
 including trade secrets, belonging to Gaussian, Inc.
  
 This software is provided under written license and may be
 used, copied, transmitted, or stored only in accord with that
 written license.
  
 The following legend is applicable only to US Government
 contracts under FAR:
  
                    RESTRICTED RIGHTS LEGEND
  
 Use, reproduction and disclosure by the US Government is
 subject to restrictions as set forth in subparagraphs (a)
 and (c) of the Commercial Computer Software - Restricted
 Rights clause in FAR 52.227-19.
  
 Gaussian, Inc.
 340 Quinnipiac St., Bldg. 40, Wallingford CT 06492
  
  
 ---------------------------------------------------------------
 Warning -- This program may not be used in any manner that
 competes with the business of Gaussian, Inc. or will provide
 assistance to any competitor of Gaussian, Inc.  The licensee
 of this program is prohibited from giving any competitor of
 Gaussian, Inc. access to this program.  By using this program,
 the user acknowledges that Gaussian, Inc. is engaged in the
 business of creating and licensing software in the field of
 computational chemistry and represents and warrants to the
 licensee that it is not a competitor of Gaussian, Inc. and that
 it will not use this program in any manner prohibited above.
 ---------------------------------------------------------------
  

 Cite this work as:
 Gaussian 16, Revision B.01,
 M. J. Frisch, G. W. Trucks, H. B. Schlegel, G. E. Scuseria, 
 M. A. Robb, J. R. Cheeseman, G. Scalmani, V. Barone, 
 G. A. Petersson, H. Nakatsuji, X. Li, M. Caricato, A. V. Marenich, 
 J. Bloino, B. G. Janesko, R. Gomperts, B. Mennucci, H. P. Hratchian, 
 J. V. Ortiz, A. F. Izmaylov, J. L. Sonnenberg, D. Williams-Young, 
 F. Ding, F. Lipparini, F. Egidi, J. Goings, B. Peng, A. Petrone, 
 T. Henderson, D. Ranasinghe, V. G. Zakrzewski, J. Gao, N. Rega, 
 G. Zheng, W. Liang, M. Hada, M. Ehara, K. Toyota, R. Fukuda, 
 J. Hasegawa, M. Ishida, T. Nakajima, Y. Honda, O. Kitao, H. Nakai, 
 T. Vreven, K. Throssell, J. A. Montgomery, Jr., J. E. Peralta, 
 F. Ogliaro, M. J. Bearpark, J. J. Heyd, E. N. Brothers, K. N. Kudin, 
 V. N. Staroverov, T. A. Keith, R. Kobayashi, J. Normand, 
 K. Raghavachari, A. P. Rendell, J. C. Burant, S. S. Iyengar, 
 J. Tomasi, M. Cossi, J. M. Millam, M. Klene, C. Adamo, R. Cammi, 
 J. W. Ochterski, R. L. Martin, K. Morokuma, O. Farkas, 
 J. B. Foresman, and D. J. Fox, Gaussian, Inc., Wallingford CT, 2016.
 
 ******************************************
 Gaussian 16:  EM64L-G16RevB.01 20-Dec-2017
                 9-Jul-2026 
 ******************************************
 %nproc=64
 Will use up to   64 processors via shared memory.
 -----------------------------------------
 #force b3lyp/3-21G* Geom=PrintInputOrient
 -----------------------------------------
 1/10=7,30=1,38=1/1,3;
 2/9=2000,12=2,17=6,18=5,40=1/2;
 3/5=5,7=1,11=2,25=1,30=1,71=1,74=-5/1,2,3;
 4//1;
 5/5=2,38=5/2;
 6/7=2,8=2,9=2,10=2,28=1/1;
 7/29=1/1,2,3,16;
 1/10=7,30=1/3;
 99//99;
 -------------------------------------------------
 Generated by MDDatasetMaker (Author: Jinzhe Zeng)
 -------------------------------------------------
 Symbolic Z-matrix:
 Charge =  0 Multiplicity = 2
 C                     4.26691   2.45016   22.7238 
 O                     2.77928   2.84267   22.2187 
 O                     3.10812   3.62356   21.292 
 H                     2.37461   3.74736   21.7521 
 O                     5.94152   2.21157   22.0803 
 

 GradGradGradGradGradGradGradGradGradGradGradGradGradGradGradGradGradGrad
 Berny optimization.
 Initialization pass.
 Trust Radius=3.00D-01 FncErr=1.00D-07 GrdErr=1.00D-07 EigMax=2.50D+02 EigMin=1.00D-04
 Number of steps in this run=      2 maximum allowed number of steps=      2.
 GradGradGradGradGradGradGradGradGradGradGradGradGradGradGradGradGradGrad

                          Input orientation:                          
 ---------------------------------------------------------------------
 Center     Atomic      Atomic             Coordinates (Angstroms)
 Number     Number       Type             X           Y           Z
 ---------------------------------------------------------------------
      1          6           0        4.266910    2.450160   22.723800
      2          8           0        2.779280    2.842670   22.218700
      3          8           0        3.108120    3.623560   21.292000
      4          1           0        2.374610    3.747360   21.752100
      5          8           0        5.941520    2.211570   22.080300
 ---------------------------------------------------------------------
                    Distance matrix (angstroms):
                    1          2          3          4          5
     1  C    0.000000
     2  O    1.619331   0.000000
     3  O    2.183967   1.255666   0.000000
     4  H    2.491531   1.095417   0.874674   0.000000
     5  O    1.809789   3.227569   3.262405   3.897334   0.000000
 Stoichiometry    CHO3(2)
 Framework group  C1[X(CHO3)]
 Deg. of freedom     9
 Full point group                 C1      NOp   1
 Largest Abelian subgroup         C1      NOp   1
 Largest concise Abelian subgroup C1      NOp   1
                         Standard orientation:                         
 ---------------------------------------------------------------------
 Center     Atomic      Atomic             Coordinates (Angstroms)
 Number     Number       Type             X           Y           Z
 ---------------------------------------------------------------------
      1          6           0        0.527102   -0.654164    0.159323
      2          8           0       -1.061621   -0.525779   -0.126524
      3          8           0       -1.169022    0.715517    0.029515
      4          1           0       -1.821854    0.172677    0.239731
      5          8           0        2.063049    0.279300   -0.052450
 ---------------------------------------------------------------------
 Rotational constants (GHZ):          25.6592002           4.3844991           3.7824038
 Standard basis: 3-21G* (6D, 7F)
 There are    38 symmetry adapted cartesian basis functions of A   symmetry.
 There are    38 symmetry adapted basis functions of A   symmetry.
    38 basis functions,    63 primitive gaussians,    38 cartesian basis functions
    16 alpha electrons       15 beta electrons
       nuclear repulsion energy       100.2623905158 Hartrees.
 NAtoms=    5 NActive=    5 NUniq=    5 SFac= 1.00D+00 NAtFMM=   60 NAOKFM=F Big=F
 Integral buffers will be    131072 words long.
 Raffenetti 2 integral format.
 Two-electron integral symmetry is turned on.
 One-electron integrals computed using PRISM.
 PrsmSu:  requested number of processors reduced to:  31 ShMem   1 Linda.
 NBasis=    38 RedAO= T EigKep=  5.14D-02  NBF=    38
 NBsUse=    38 1.00D-06 EigRej= -1.00D+00 NBFU=    38
 ExpMin= 1.83D-01 ExpMax= 3.22D+02 ExpMxC= 3.22D+02 IAcc=3 IRadAn=         5 AccDes= 0.00D+00
 Harris functional with IExCor=  402 and IRadAn=       5 diagonalized for initial guess.
 HarFok:  IExCor=  402 AccDes= 0.00D+00 IRadAn=         5 IDoV= 1 UseB2=F ITyADJ=14
 ICtDFT=  3500011 ScaDFX=  1.000000  1.000000  1.000000  1.000000
 FoFCou: FMM=F IPFlag=           0 FMFlag=      100000 FMFlg1=           0
         NFxFlg=           0 DoJE=T BraDBF=F KetDBF=T FulRan=T
         wScrn=  0.000000 ICntrl=       500 IOpCl=  0 I1Cent=   200000004 NGrid=           0
         NMat0=    1 NMatS0=      1 NMatT0=    0 NMatD0=    1 NMtDS0=    0 NMtDT0=    0
 Petite list used in FoFCou.
 Initial guess <Sx>= 0.0000 <Sy>= 0.0000 <Sz>= 0.5000 <S**2>= 0.7500 S= 0.5000
 Keep R1 and R2 ints in memory in canonical form, NReq=55854913.
 Requested convergence on RMS density matrix=1.00D-08 within 128 cycles.
 Requested convergence on MAX density matrix=1.00D-06.
 Requested convergence on             energy=1.00D-06.
 No special actions if energy rises.
 Integral accuracy reduced to 1.0D-05 until final iterations.
 EnCoef did     3 forward-backward iterations
 Rare condition: small coef for last iteration:  0.000D+00
 Rare condition: small coef for last iteration:  0.000D+00
 Problem detected with inexpensive integrals.
 Switching to full accuracy and repeating last cycle.
 Rare condition: small coef for last iteration:  0.000D+00
 EnCoef did   100 forward-backward iterations
 Rare condition: small coef for last iteration:  0.000D+00
 Rare condition: small coef for last iteration:  0.000D+00
 Rare condition: small coef for last iteration:  0.000D+00
 Rare condition: small coef for last iteration:  0.000D+00
 EnCoef did   100 forward-backward iterations
 Rare condition: small coef for last iteration:  0.000D+00
 Rare condition: small coef for last iteration:  0.000D+00
 Rare condition: small coef for last iteration:  0.000D+00
 Rare condition: small coef for last iteration:  0.000D+00
 Rare condition: small coef for last iteration:  0.000D+00
 Rare condition: small coef for last iteration:  0.000D+00
 Rare condition: small coef for last iteration:  0.000D+00
 Rare condition: small coef for last iteration:  0.000D+00
 Rare condition: small coef for last iteration:  0.000D+00
 Rare condition: small coef for last iteration:  0.000D+00
 Rare condition: small coef for last iteration:  0.000D+00
 Rare condition: small coef for last iteration:  0.000D+00
 Rare condition: small coef for last iteration:  0.000D+00
 Rare condition: small coef for last iteration:  0.000D+00
 Rare condition: small coef for last iteration:  0.000D+00
 Rare condition: small coef for last iteration:  0.000D+00
 Rare condition: small coef for last iteration:  0.000D+00
 Rare condition: small coef for last iteration:  0.000D+00
 Rare condition: small coef for last iteration:  0.000D+00
 Rare condition: small coef for last iteration:  0.000D+00
 Rare condition: small coef for last iteration:  0.000D+00
 Rare condition: small coef for last iteration:  0.000D+00
 Rare condition: small coef for last iteration:  0.000D+00
 Rare condition: small coef for last iteration:  0.000D+00
 Rare condition: small coef for last iteration:  0.000D+00
 Rare condition: small coef for last iteration:  0.000D+00
 Rare condition: small coef for last iteration:  0.000D+00
 Rare condition: small coef for last iteration:  0.000D+00
 Rare condition: small coef for last iteration:  0.000D+00
 Rare condition: small coef for last iteration:  0.000D+00
 Rare condition: small coef for last iteration:  0.000D+00
 Rare condition: small coef for last iteration:  0.000D+00
 Rare condition: small coef for last iteration:  0.000D+00
 Rare condition: small coef for last iteration:  0.000D+00
 Rare condition: small coef for last iteration:  0.000D+00
 Rare condition: small coef for last iteration:  0.000D+00
 Rare condition: small coef for last iteration:  0.000D+00
 Rare condition: small coef for last iteration:  0.000D+00
 Rare condition: small coef for last iteration:  0.000D+00
 Rare condition: small coef for last iteration:  0.000D+00
 Rare condition: small coef for last iteration:  0.000D+00
 Rare condition: small coef for last iteration:  0.000D+00
 Rare condition: small coef for last iteration:  0.000D+00
 >>>>>>>>>> Convergence criterion not met.
 SCF Done:  E(UB3LYP) =  -262.330993298     A.U. after  129 cycles
            NFock=128  Conv=0.28D-02     -V/T= 2.0049
 <Sx>= 0.0000 <Sy>= 0.0000 <Sz>= 0.5000 <S**2>= 0.9554 S= 0.5979
 <L.S>= 0.000000000000E+00
 Annihilation of the first spin contaminant:
 S**2 before annihilation     0.9554,   after     0.7587

 **********************************************************************

            Population analysis using the SCF Density.

 **********************************************************************

 Orbital symmetries:
 Alpha Orbitals:
       Occupied  (A) (A) (A) (A) (A) (A) (A) (A) (A) (A) (A) (A)
                 (A) (A) (A) (A)
       Virtual   (A) (A) (A) (A) (A) (A) (A) (A) (A) (A) (A) (A)
                 (A) (A) (A) (A) (A) (A) (A) (A) (A) (A)
 Beta  Orbitals:
       Occupied  (A) (A) (A) (A) (A) (A) (A) (A) (A) (A) (A) (A)
                 (A) (A) (A)
       Virtual   (A) (A) (A) (A) (A) (A) (A) (A) (A) (A) (A) (A)
                 (A) (A) (A) (A) (A) (A) (A) (A) (A) (A) (A)
 The electronic state is 2-A.
 Alpha  occ. eigenvalues --  -19.20531 -19.11913 -19.09909 -10.33785  -1.39976
 Alpha  occ. eigenvalues --   -0.91162  -0.89088  -0.68967  -0.58384  -0.52776
 Alpha  occ. eigenvalues --   -0.50136  -0.38342  -0.32010  -0.30683  -0.29462
 Alpha  occ. eigenvalues --   -0.26604
 Alpha virt. eigenvalues --   -0.14669  -0.10612   0.05082   0.12858   0.15752
 Alpha virt. eigenvalues --    0.66506   0.68060   0.74932   0.91531   1.06866
 Alpha virt. eigenvalues --    1.31608   1.35565   1.42510   1.43551   1.46851
 Alpha virt. eigenvalues --    1.51389   1.53521   1.62550   1.71716   2.52381
 Alpha virt. eigenvalues --    2.80476   2.83273
  Beta  occ. eigenvalues --  -19.20181 -19.11689 -19.09501 -10.32686  -1.39434
  Beta  occ. eigenvalues --   -0.89667  -0.87923  -0.67687  -0.57040  -0.51894
  Beta  occ. eigenvalues --   -0.47424  -0.36484  -0.30885  -0.30726  -0.26640
  Beta virt. eigenvalues --   -0.14980  -0.11910  -0.08442   0.07947   0.13411
  Beta virt. eigenvalues --    0.16351   0.68219   0.72767   0.75628   0.91713
  Beta virt. eigenvalues --    1.09089   1.32031   1.35951   1.42794   1.43362
  Beta virt. eigenvalues --    1.46712   1.53890   1.55292   1.62787   1.72649
  Beta virt. eigenvalues --    2.53389   2.81270   2.83746
          Condensed to atoms (all electrons):
               1          2          3          4          5
     1  C    5.561423   0.095532  -0.061585   0.012430   0.179209
     2  O    0.095532   8.425178  -0.179456  -0.062462  -0.000758
     3  O   -0.061585  -0.179456   8.284993   0.230155  -0.000371
     4  H    0.012430  -0.062462   0.230155   0.399098   0.000087
     5  O    0.179209  -0.000758  -0.000371   0.000087   7.903743
          Atomic-Atomic Spin Densities.
               1          2          3          4          5
     1  C    0.722801  -0.074641  -0.009006   0.001035  -0.000353
     2  O   -0.074641   0.201050  -0.024781   0.001602   0.000481
     3  O   -0.009006  -0.024781   0.105549  -0.004829  -0.000058
     4  H    0.001035   0.001602  -0.004829   0.002191   0.000036
     5  O   -0.000353   0.000481  -0.000058   0.000036   0.189438
 Mulliken charges and spin densities:
               1          2
     1  C    0.212990   0.639836
     2  O   -0.278035   0.103710
     3  O   -0.273737   0.066875
     4  H    0.420691   0.000035
     5  O   -0.081910   0.189544
 Sum of Mulliken charges =   0.00000   1.00000
 Mulliken charges and spin densities with hydrogens summed into heavy atoms:
               1          2
     1  C    0.212990   0.639836
     2  O   -0.278035   0.103710
     3  O    0.146954   0.066910
     5  O   -0.081910   0.189544
 Electronic spatial extent (au):  <R**2>=            293.8616
 Charge=              0.0000 electrons
 Dipole moment (field-independent basis, Debye):
    X=             -2.0059    Y=             -0.3655    Z=              0.3365  Tot=              2.0665
 Quadrupole moment (field-independent basis, Debye-Ang):
   XX=            -19.5999   YY=            -23.2481   ZZ=            -21.5597
   XY=              0.3685   XZ=             -1.4577   YZ=              0.2198
 Traceless Quadrupole moment (field-independent basis, Debye-Ang):
   XX=              1.8693   YY=             -1.7788   ZZ=             -0.0904
   XY=              0.3685   XZ=             -1.4577   YZ=              0.2198
 Octapole moment (field-independent basis, Debye-Ang**2):
  XXX=            -15.2163  YYY=              4.4632  ZZZ=             -0.9398  XYY=              0.2333
  XXY=              2.6952  XXZ=              0.9136  XZZ=             -1.6421  YZZ=              1.4280
  YYZ=             -0.6810  XYZ=             -0.0096
 Hexadecapole moment (field-independent basis, Debye-Ang**3):
 XXXX=           -217.5018 YYYY=            -56.7782 ZZZZ=            -16.9537 XXXY=              3.7002
 XXXZ=             -5.9427 YYYX=              3.5912 YYYZ=              1.6138 ZZZX=             -1.2692
 ZZZY=              0.8295 XXYY=            -50.4814 XXZZ=            -42.5720 YYZZ=            -12.7483
 XXYZ=              0.0895 YYXZ=             -1.1287 ZZXY=              0.9311
 N-N= 1.002623905158D+02 E-N=-8.189169867336D+02  KE= 2.610482197967D+02
                          Isotropic Fermi Contact Couplings
        Atom                 a.u.       MegaHertz       Gauss      10(-4) cm-1
     1  C(13)              0.25122     282.41579     100.77298      94.20377
     2  O(17)              0.05365     -32.52173     -11.60456     -10.84808
     3  O(17)              0.04207     -25.49980      -9.09896      -8.50582
     4  H(1)              -0.00101      -4.53272      -1.61739      -1.51195
     5  O(17)              0.00050      -0.30085      -0.10735      -0.10035
 --------------------------------------------------------
       Center         ----  Spin Dipole Couplings  ----
                      3XX-RR        3YY-RR        3ZZ-RR
 --------------------------------------------------------
     1   Atom       -0.414191      0.571948     -0.157757
     2   Atom        0.334070     -0.235762     -0.098308
     3   Atom        0.208158     -0.120564     -0.087593
     4   Atom        0.012636      0.005297     -0.017933
     5   Atom       -1.726526      2.081887     -0.355361
 --------------------------------------------------------
                        XY            XZ            YZ
 --------------------------------------------------------
     1   Atom       -0.109177     -0.029591     -0.030059
     2   Atom       -0.109213      0.404816     -0.058026
     3   Atom       -0.131136      0.234447     -0.077512
     4   Atom       -0.005492     -0.009978      0.000507
     5   Atom        1.561382     -0.087631     -1.544181
 --------------------------------------------------------


 ---------------------------------------------------------------------------------
              Anisotropic Spin Dipole Couplings in Principal Axis System
 ---------------------------------------------------------------------------------

       Atom             a.u.   MegaHertz   Gauss  10(-4) cm-1        Axes

              Baa    -0.4301   -57.711   -20.593   -19.250  0.9866  0.1111  0.1195
     1 C(13)  Bbb    -0.1548   -20.770    -7.411    -6.928 -0.1227  0.0226  0.9922
              Bcc     0.5848    78.481    28.004    26.178 -0.1075  0.9936 -0.0359
 
              Baa    -0.3415    24.711     8.818     8.243 -0.5212 -0.0716  0.8504
     2 O(17)  Bbb    -0.2537    18.355     6.549     6.122  0.0887  0.9865  0.1374
              Bcc     0.5952   -43.066   -15.367   -14.365  0.8488 -0.1470  0.5078
 
              Baa    -0.2173    15.722     5.610     5.244 -0.4614  0.0823  0.8834
     3 O(17)  Bbb    -0.1662    12.025     4.291     4.011  0.2937  0.9537  0.0645
              Bcc     0.3835   -27.748    -9.901    -9.256  0.8372 -0.2892  0.4642
 
              Baa    -0.0209   -11.176    -3.988    -3.728  0.2909  0.0424  0.9558
     4 H(1)   Bbb     0.0030     1.612     0.575     0.538  0.3663  0.9179 -0.1522
              Bcc     0.0179     9.565     3.413     3.190  0.8838 -0.3944 -0.2515
 
              Baa    -2.4035   173.917    62.058    58.012  0.8802 -0.3963 -0.2611
     5 O(17)  Bbb    -0.8521    61.654    22.000    20.565  0.3814  0.2634  0.8861
              Bcc     3.2556  -235.571   -84.057   -78.578  0.2824  0.8795 -0.3830
 

 ---------------------------------------------------------------------------------

 SCFChk:  SCF convergence  2.77D-03 required  1.00D-08


 SCF Error SCF Error SCF Error SCF Error SCF Error SCF Error SCF Error SCF Error

                                    ERROR!!!!

    SCF has not converged.  Gradients and post-SCF results would be GARBAGE!!

 SCF Error SCF Error SCF Error SCF Error SCF Error SCF Error SCF Error SCF Error


 Error termination via Lnk1e in /work/home/ackgydj0bd/apprepo/gaussian/16b.01-none_v1.3/app/g16/l701.exe at Thu Jul  9 10:29:27 2026.
 Job cpu time:       0 days  0 hours  4 minutes 13.7 seconds.
 Elapsed time:       0 days  0 hours  0 minutes  4.5 seconds.
 File lengths (MBytes):  RWF=      6 Int=      0 D2E=      0 Chk=      1 Scr=      1
