 Entering Gaussian System, Link 0=g16
 Input=loop1_C1111_08.gjf
 Output=loop1_C1111_08.log
 Initial command:
 /work/home/ackgydj0bd/apprepo/gaussian/16b.01-none_v1.3/app/g16/l1.exe "/work/home/ackgydj0bd/apprepo/gaussian/16b.01-none_v1.3/app/g16/scratch/Gau-251744.inp" -scrdir="/work/home/ackgydj0bd/apprepo/gaussian/16b.01-none_v1.3/app/g16/scratch/"
 Entering Link 1 = /work/home/ackgydj0bd/apprepo/gaussian/16b.01-none_v1.3/app/g16/l1.exe PID=    251745.
  
 Copyright (c) 1988-2017, Gaussian, Inc.  All Rights Reserved.
  
 This is part of the Gaussian(R) 16 program.  It is based on
 the Gaussian(R) 09 system (copyright 2009, Gaussian, Inc.),
 the Gaussian(R) 03 system (copyright 2003, Gaussian, Inc.),
 the Gaussian(R) 98 system (copyright 1998, Gaussian, Inc.),
 the Gaussian(R) 94 system (copyright 1995, Gaussian, Inc.),
 the Gaussian 92(TM) system (copyright 1992, Gaussian, Inc.),
 the Gaussian 90(TM) system (copyright 1990, Gaussian, Inc.),
 the Gaussian 88(TM) system (copyright 1988, Gaussian, Inc.),
 the Gaussian 86(TM) system (copyright 1986, Carnegie Mellon
 University), and the Gaussian 82(TM) system (copyright 1983,
 Carnegie Mellon University). Gaussian is a federally registered
 trademark of Gaussian, Inc.
  
 This software contains proprietary and confidential information,
 including trade secrets, belonging to Gaussian, Inc.
  
 This software is provided under written license and may be
 used, copied, transmitted, or stored only in accord with that
 written license.
  
 The following legend is applicable only to US Government
 contracts under FAR:
  
                    RESTRICTED RIGHTS LEGEND
  
 Use, reproduction and disclosure by the US Government is
 subject to restrictions as set forth in subparagraphs (a)
 and (c) of the Commercial Computer Software - Restricted
 Rights clause in FAR 52.227-19.
  
 Gaussian, Inc.
 340 Quinnipiac St., Bldg. 40, Wallingford CT 06492
  
  
 ---------------------------------------------------------------
 Warning -- This program may not be used in any manner that
 competes with the business of Gaussian, Inc. or will provide
 assistance to any competitor of Gaussian, Inc.  The licensee
 of this program is prohibited from giving any competitor of
 Gaussian, Inc. access to this program.  By using this program,
 the user acknowledges that Gaussian, Inc. is engaged in the
 business of creating and licensing software in the field of
 computational chemistry and represents and warrants to the
 licensee that it is not a competitor of Gaussian, Inc. and that
 it will not use this program in any manner prohibited above.
 ---------------------------------------------------------------
  

 Cite this work as:
 Gaussian 16, Revision B.01,
 M. J. Frisch, G. W. Trucks, H. B. Schlegel, G. E. Scuseria, 
 M. A. Robb, J. R. Cheeseman, G. Scalmani, V. Barone, 
 G. A. Petersson, H. Nakatsuji, X. Li, M. Caricato, A. V. Marenich, 
 J. Bloino, B. G. Janesko, R. Gomperts, B. Mennucci, H. P. Hratchian, 
 J. V. Ortiz, A. F. Izmaylov, J. L. Sonnenberg, D. Williams-Young, 
 F. Ding, F. Lipparini, F. Egidi, J. Goings, B. Peng, A. Petrone, 
 T. Henderson, D. Ranasinghe, V. G. Zakrzewski, J. Gao, N. Rega, 
 G. Zheng, W. Liang, M. Hada, M. Ehara, K. Toyota, R. Fukuda, 
 J. Hasegawa, M. Ishida, T. Nakajima, Y. Honda, O. Kitao, H. Nakai, 
 T. Vreven, K. Throssell, J. A. Montgomery, Jr., J. E. Peralta, 
 F. Ogliaro, M. J. Bearpark, J. J. Heyd, E. N. Brothers, K. N. Kudin, 
 V. N. Staroverov, T. A. Keith, R. Kobayashi, J. Normand, 
 K. Raghavachari, A. P. Rendell, J. C. Burant, S. S. Iyengar, 
 J. Tomasi, M. Cossi, J. M. Millam, M. Klene, C. Adamo, R. Cammi, 
 J. W. Ochterski, R. L. Martin, K. Morokuma, O. Farkas, 
 J. B. Foresman, and D. J. Fox, Gaussian, Inc., Wallingford CT, 2016.
 
 ******************************************
 Gaussian 16:  EM64L-G16RevB.01 20-Dec-2017
                 9-Jul-2026 
 ******************************************
 %nproc=64
 Will use up to   64 processors via shared memory.
 -----------------------------------------
 #force b3lyp/3-21G* Geom=PrintInputOrient
 -----------------------------------------
 1/10=7,30=1,38=1/1,3;
 2/9=2000,12=2,17=6,18=5,40=1/2;
 3/5=5,7=1,11=2,25=1,30=1,71=1,74=-5/1,2,3;
 4//1;
 5/5=2,38=5/2;
 6/7=2,8=2,9=2,10=2,28=1/1;
 7/29=1/1,2,3,16;
 1/10=7,30=1/3;
 99//99;
 -------------------------------------------------
 Generated by MDDatasetMaker (Author: Jinzhe Zeng)
 -------------------------------------------------
 Symbolic Z-matrix:
 Charge =  0 Multiplicity = 1
 C                     0.958     17.822    25.056 
 H                     1.248     17.4      25.996 
 H                     0.283     18.636    25.224 
 H                     1.826     18.179    24.542 
 H                     0.474     17.074    24.463 
 

 GradGradGradGradGradGradGradGradGradGradGradGradGradGradGradGradGradGrad
 Berny optimization.
 Initialization pass.
 Trust Radius=3.00D-01 FncErr=1.00D-07 GrdErr=1.00D-07 EigMax=2.50D+02 EigMin=1.00D-04
 Number of steps in this run=      2 maximum allowed number of steps=      2.
 GradGradGradGradGradGradGradGradGradGradGradGradGradGradGradGradGradGrad

                          Input orientation:                          
 ---------------------------------------------------------------------
 Center     Atomic      Atomic             Coordinates (Angstroms)
 Number     Number       Type             X           Y           Z
 ---------------------------------------------------------------------
      1          6           0        0.958000   17.822000   25.056000
      2          1           0        1.248000   17.400000   25.996000
      3          1           0        0.283000   18.636000   25.224000
      4          1           0        1.826000   18.179000   24.542000
      5          1           0        0.474000   17.074000   24.463000
 ---------------------------------------------------------------------
                    Distance matrix (angstroms):
                    1          2          3          4          5
     1  C    0.000000
     2  H    1.070413   0.000000
     3  H    1.070722   1.747829   0.000000
     4  H    1.070079   1.747868   1.747805   0.000000
     5  H    1.070238   1.747982   1.747983   1.747904   0.000000
 Stoichiometry    CH4
 Framework group  C1[X(CH4)]
 Deg. of freedom     9
 Full point group                 C1      NOp   1
 Largest Abelian subgroup         C1      NOp   1
 Largest concise Abelian subgroup C1      NOp   1
                         Standard orientation:                         
 ---------------------------------------------------------------------
 Center     Atomic      Atomic             Coordinates (Angstroms)
 Number     Number       Type             X           Y           Z
 ---------------------------------------------------------------------
      1          6           0        0.000114   -0.000011   -0.000130
      2          1           0       -0.469558    0.909753   -0.312416
      3          1           0       -0.496400   -0.376633    0.870545
      4          1           0       -0.062818   -0.722564   -0.786911
      5          1           0        1.028090    0.189507    0.229561
 ---------------------------------------------------------------------
 Rotational constants (GHZ):         164.1481292         164.1320841         164.1248370
 Standard basis: 3-21G* (6D, 7F)
 There are    17 symmetry adapted cartesian basis functions of A   symmetry.
 There are    17 symmetry adapted basis functions of A   symmetry.
    17 basis functions,    27 primitive gaussians,    17 cartesian basis functions
     5 alpha electrons        5 beta electrons
       nuclear repulsion energy        13.6818786584 Hartrees.
 NAtoms=    5 NActive=    5 NUniq=    5 SFac= 1.00D+00 NAtFMM=   60 NAOKFM=F Big=F
 Integral buffers will be    131072 words long.
 Raffenetti 2 integral format.
 Two-electron integral symmetry is turned on.
 One-electron integrals computed using PRISM.
 PrsmSu:  requested number of processors reduced to:  31 ShMem   1 Linda.
 NBasis=    17 RedAO= T EigKep=  3.17D-02  NBF=    17
 NBsUse=    17 1.00D-06 EigRej= -1.00D+00 NBFU=    17
 ExpMin= 1.83D-01 ExpMax= 1.72D+02 ExpMxC= 1.72D+02 IAcc=3 IRadAn=         5 AccDes= 0.00D+00
 Harris functional with IExCor=  402 and IRadAn=       5 diagonalized for initial guess.
 HarFok:  IExCor=  402 AccDes= 0.00D+00 IRadAn=         5 IDoV= 1 UseB2=F ITyADJ=14
 ICtDFT=  3500011 ScaDFX=  1.000000  1.000000  1.000000  1.000000
 FoFCou: FMM=F IPFlag=           0 FMFlag=      100000 FMFlg1=           0
         NFxFlg=           0 DoJE=T BraDBF=F KetDBF=T FulRan=T
         wScrn=  0.000000 ICntrl=       500 IOpCl=  0 I1Cent=   200000004 NGrid=           0
         NMat0=    1 NMatS0=      1 NMatT0=    0 NMatD0=    1 NMtDS0=    0 NMtDT0=    0
 Petite list used in FoFCou.
 Keep R1 ints in memory in canonical form, NReq=55236554.
 Requested convergence on RMS density matrix=1.00D-08 within 128 cycles.
 Requested convergence on MAX density matrix=1.00D-06.
 Requested convergence on             energy=1.00D-06.
 No special actions if energy rises.
 Integral accuracy reduced to 1.0D-05 until final iterations.
 Initial convergence to 1.0D-05 achieved.  Increase integral accuracy.
 SCF Done:  E(RB3LYP) =  -40.3002061875     A.U. after    9 cycles
            NFock=  9  Conv=0.17D-08     -V/T= 2.0076

 **********************************************************************

            Population analysis using the SCF Density.

 **********************************************************************

 Orbital symmetries:
       Occupied  (A) (A) (A) (A) (A)
       Virtual   (A) (A) (A) (A) (A) (A) (A) (A) (A) (A) (A) (A)
 The electronic state is 1-A.
 Alpha  occ. eigenvalues --  -10.09030  -0.69695  -0.39294  -0.39287  -0.39271
 Alpha virt. eigenvalues --    0.15260   0.20175   0.20189   0.20196   0.69620
 Alpha virt. eigenvalues --    0.69629   0.69637   1.05695   1.07438   1.07469
 Alpha virt. eigenvalues --    1.07487   1.70652
          Condensed to atoms (all electrons):
               1          2          3          4          5
     1  C    5.301532   0.370424   0.370374   0.370467   0.370462
     2  H    0.370424   0.514011  -0.026766  -0.026737  -0.026731
     3  H    0.370374  -0.026766   0.514183  -0.026755  -0.026742
     4  H    0.370467  -0.026737  -0.026755   0.513852  -0.026728
     5  H    0.370462  -0.026731  -0.026742  -0.026728   0.513886
 Mulliken charges:
               1
     1  C   -0.783259
     2  H    0.195799
     3  H    0.195705
     4  H    0.195902
     5  H    0.195853
 Sum of Mulliken charges =   0.00000
 Mulliken charges with hydrogens summed into heavy atoms:
               1
     1  C    0.000000
 Electronic spatial extent (au):  <R**2>=             34.6433
 Charge=              0.0000 electrons
 Dipole moment (field-independent basis, Debye):
    X=             -0.0002    Y=              0.0000    Z=              0.0001  Tot=              0.0002
 Quadrupole moment (field-independent basis, Debye-Ang):
   XX=             -8.1944   YY=             -8.1949   ZZ=             -8.1955
   XY=              0.0000   XZ=              0.0005   YZ=              0.0008
 Traceless Quadrupole moment (field-independent basis, Debye-Ang):
   XX=              0.0005   YY=              0.0001   ZZ=             -0.0006
   XY=              0.0000   XZ=              0.0005   YZ=              0.0008
 Octapole moment (field-independent basis, Debye-Ang**2):
  XXX=              0.6244  YYY=              0.2381  ZZZ=              0.1105  XYY=             -0.3297
  XXY=              0.2213  XXZ=              0.2790  XZZ=             -0.2946  YZZ=             -0.4597
  YYZ=             -0.3902  XYZ=              0.2211
 Hexadecapole moment (field-independent basis, Debye-Ang**3):
 XXXX=            -14.0597 YYYY=            -14.3246 ZZZZ=            -14.3355 XXXY=              0.1695
 XXXZ=              0.1894 YYYX=             -0.3182 YYYZ=              0.0195 ZZZX=             -0.2890
 ZZZY=              0.0854 XXYY=             -4.8489 XXZZ=             -4.8395 YYZZ=             -4.5743
 XXYZ=             -0.1017 YYXZ=              0.1017 ZZXY=              0.1486
 N-N= 1.368187865842D+01 E-N=-1.200023591542D+02  KE= 3.999718646564D+01
 PrsmSu:  requested number of processors reduced to:  31 ShMem   1 Linda.
 Calling FoFJK, ICntrl=      2127 FMM=F ISym2X=0 I1Cent= 0 IOpClX= 0 NMat=1 NMatS=1 NMatT=0.
 ***** Axes restored to original set *****
 -------------------------------------------------------------------
 Center     Atomic                   Forces (Hartrees/Bohr)
 Number     Number              X              Y              Z
 -------------------------------------------------------------------
      1        6          -0.000317241    0.000232476    0.000269450
      2        1           0.004458485   -0.006481208    0.014334993
      3        1          -0.010184033    0.012270757    0.002507251
      4        1           0.013460907    0.005496037   -0.007978643
      5        1          -0.007418119   -0.011518062   -0.009133049
 -------------------------------------------------------------------
 Cartesian Forces:  Max     0.014334993 RMS     0.008463033

 GradGradGradGradGradGradGradGradGradGradGradGradGradGradGradGradGradGrad
 Berny optimization.
 Search for a local minimum.
 Step number   1 out of a maximum of    2
 All quantities printed in internal units (Hartrees-Bohrs-Radians)
 Second derivative matrix not updated -- first step.
 The second derivative matrix:
                          X1        Y1        Z1        X2        Y2
           X1           0.70768
           Y1           0.00064   0.70737
           Z1          -0.00008   0.00001   0.70774
           X2          -0.10089   0.03117  -0.06957   0.08207
           Y2           0.03117  -0.12485   0.10122  -0.03337   0.10771
           Z2          -0.06958   0.10124  -0.30488   0.07440  -0.10826
           X3          -0.19543   0.13994   0.02889  -0.00119   0.00192
           Y3           0.13995  -0.24815  -0.03484   0.00359  -0.00374
           Z3           0.02889  -0.03485  -0.08652  -0.02217   0.02584
           X4          -0.27207  -0.07924   0.11404   0.02158   0.00479
           Y4          -0.07926  -0.11203   0.04689  -0.01132  -0.00216
           Z4           0.11404   0.04688  -0.14704   0.02858   0.00659
           X5          -0.13928  -0.09251  -0.07328  -0.00157  -0.00451
           Y5          -0.09249  -0.22234  -0.11328   0.00992   0.02305
           Z5          -0.07327  -0.11328  -0.16930  -0.01124  -0.02539
                          Z2        X3        Y3        Z3        X4
           Z2           0.30023
           X3           0.00123   0.18320
           Y3          -0.00279  -0.14967   0.23958
           Z3           0.01844  -0.03089   0.03726   0.06675
           X4          -0.00451  -0.00947  -0.00930   0.00699   0.26512
           Y4           0.00252   0.02317   0.02260  -0.01640   0.08473
           Z4          -0.00586   0.00009  -0.00001   0.00041  -0.12197
           X5          -0.00154   0.02289   0.01543   0.01718  -0.00515
           Y5           0.00729  -0.01535  -0.01029  -0.01185  -0.00098
           Z5          -0.00793   0.00069   0.00038   0.00093   0.00545
                          Y4        Z4        X5        Y5        Z5
           Y4           0.09398
           Z4          -0.05015   0.13140
           X5          -0.01732  -0.02074   0.12311
           Y5          -0.00238  -0.00331   0.09891   0.21195
           Z5           0.01714   0.02110   0.07838   0.12116   0.15520
 ITU=  0
     Eigenvalues ---    0.11732   0.11732   0.14136   0.14141   0.14144
     Eigenvalues ---    0.37184   0.86790   0.86895   0.86953
 Angle between quadratic step and forces=   0.69 degrees.
 Linear search not attempted -- first point.
 B after Tr=    -0.000061    0.000064    0.000063
         Rot=    1.000000    0.000000    0.000000    0.000000 Ang=   0.00 deg.
 Variable       Old X    -DE/DX   Delta X   Delta X   Delta X     New X
                                 (Linear)    (Quad)   (Total)
    X1        1.81036  -0.00032   0.00000  -0.00021  -0.00027   1.81009
    Y1       33.67870   0.00023   0.00000   0.00022   0.00028  33.67898
    Z1       47.34898   0.00027   0.00000   0.00022   0.00028  47.34926
    X2        2.35838   0.00446   0.00000   0.01204   0.01198   2.37036
    Y2       32.88123  -0.00648   0.00000  -0.01755  -0.01749  32.86375
    Z2       49.12532   0.01433   0.00000   0.03854   0.03860  49.16393
    X3        0.53479  -0.01018   0.00000  -0.02770  -0.02776   0.50703
    Y3       35.21694   0.01227   0.00000   0.03325   0.03332  35.25025
    Z3       47.66645   0.00251   0.00000   0.00673   0.00680  47.67325
    X4        3.45064   0.01346   0.00000   0.03602   0.03596   3.48660
    Y4       34.35333   0.00550   0.00000   0.01462   0.01468  34.36801
    Z4       46.37766  -0.00798   0.00000  -0.02136  -0.02130  46.35636
    X5        0.89573  -0.00742   0.00000  -0.01985  -0.01991   0.87582
    Y5       32.26518  -0.01152   0.00000  -0.03085  -0.03079  32.23439
    Z5       46.22837  -0.00913   0.00000  -0.02444  -0.02438  46.20399
         Item               Value     Threshold  Converged?
 Maximum Force            0.014335     0.000450     NO 
 RMS     Force            0.008463     0.000300     NO 
 Maximum Displacement     0.038605     0.001800     NO 
 RMS     Displacement     0.022757     0.001200     NO 
 Predicted change in Energy=-1.444321D-03
 GradGradGradGradGradGradGradGradGradGradGradGradGradGradGradGradGradGrad

 1\1\GINC-H08R06\Force\RB3LYP\3-21G*\C1H4\ACKGYDJ0BD\09-Jul-2026\0\\#fo
 rce b3lyp/3-21G* Geom=PrintInputOrient\\Generated by MDDatasetMaker (A
 uthor: Jinzhe Zeng)\\0,1\C,0.958,17.822,25.056\H,1.248,17.4,25.996\H,0
 .283,18.636,25.224\H,1.826,18.179,24.542\H,0.474,17.074,24.463\\Versio
 n=EM64L-G16RevB.01\State=1-A\HF=-40.3002062\RMSD=1.715e-09\RMSF=8.463e
 -03\Dipole=-0.0000162,0.0000791,0.0000522\Quadrupole=-0.000057,-0.0001
 861,0.0002431,0.0007402,-0.0000354,0.0001252\PG=C01 [X(C1H4)]\\@


 A warm smile is the universal language of kindness.
                             -- William Arthur Ward
 Job cpu time:       0 days  0 hours  2 minutes 35.5 seconds.
 Elapsed time:       0 days  0 hours  0 minutes  3.2 seconds.
 File lengths (MBytes):  RWF=      6 Int=      0 D2E=      0 Chk=      1 Scr=      1
 Normal termination of Gaussian 16 at Thu Jul  9 10:27:12 2026.
