 Entering Gaussian System, Link 0=g16
 Input=loop1_C1111_06.gjf
 Output=loop1_C1111_06.log
 Initial command:
 /work/home/ackgydj0bd/apprepo/gaussian/16b.01-none_v1.3/app/g16/l1.exe "/work/home/ackgydj0bd/apprepo/gaussian/16b.01-none_v1.3/app/g16/scratch/Gau-249444.inp" -scrdir="/work/home/ackgydj0bd/apprepo/gaussian/16b.01-none_v1.3/app/g16/scratch/"
 Entering Link 1 = /work/home/ackgydj0bd/apprepo/gaussian/16b.01-none_v1.3/app/g16/l1.exe PID=    249445.
  
 Copyright (c) 1988-2017, Gaussian, Inc.  All Rights Reserved.
  
 This is part of the Gaussian(R) 16 program.  It is based on
 the Gaussian(R) 09 system (copyright 2009, Gaussian, Inc.),
 the Gaussian(R) 03 system (copyright 2003, Gaussian, Inc.),
 the Gaussian(R) 98 system (copyright 1998, Gaussian, Inc.),
 the Gaussian(R) 94 system (copyright 1995, Gaussian, Inc.),
 the Gaussian 92(TM) system (copyright 1992, Gaussian, Inc.),
 the Gaussian 90(TM) system (copyright 1990, Gaussian, Inc.),
 the Gaussian 88(TM) system (copyright 1988, Gaussian, Inc.),
 the Gaussian 86(TM) system (copyright 1986, Carnegie Mellon
 University), and the Gaussian 82(TM) system (copyright 1983,
 Carnegie Mellon University). Gaussian is a federally registered
 trademark of Gaussian, Inc.
  
 This software contains proprietary and confidential information,
 including trade secrets, belonging to Gaussian, Inc.
  
 This software is provided under written license and may be
 used, copied, transmitted, or stored only in accord with that
 written license.
  
 The following legend is applicable only to US Government
 contracts under FAR:
  
                    RESTRICTED RIGHTS LEGEND
  
 Use, reproduction and disclosure by the US Government is
 subject to restrictions as set forth in subparagraphs (a)
 and (c) of the Commercial Computer Software - Restricted
 Rights clause in FAR 52.227-19.
  
 Gaussian, Inc.
 340 Quinnipiac St., Bldg. 40, Wallingford CT 06492
  
  
 ---------------------------------------------------------------
 Warning -- This program may not be used in any manner that
 competes with the business of Gaussian, Inc. or will provide
 assistance to any competitor of Gaussian, Inc.  The licensee
 of this program is prohibited from giving any competitor of
 Gaussian, Inc. access to this program.  By using this program,
 the user acknowledges that Gaussian, Inc. is engaged in the
 business of creating and licensing software in the field of
 computational chemistry and represents and warrants to the
 licensee that it is not a competitor of Gaussian, Inc. and that
 it will not use this program in any manner prohibited above.
 ---------------------------------------------------------------
  

 Cite this work as:
 Gaussian 16, Revision B.01,
 M. J. Frisch, G. W. Trucks, H. B. Schlegel, G. E. Scuseria, 
 M. A. Robb, J. R. Cheeseman, G. Scalmani, V. Barone, 
 G. A. Petersson, H. Nakatsuji, X. Li, M. Caricato, A. V. Marenich, 
 J. Bloino, B. G. Janesko, R. Gomperts, B. Mennucci, H. P. Hratchian, 
 J. V. Ortiz, A. F. Izmaylov, J. L. Sonnenberg, D. Williams-Young, 
 F. Ding, F. Lipparini, F. Egidi, J. Goings, B. Peng, A. Petrone, 
 T. Henderson, D. Ranasinghe, V. G. Zakrzewski, J. Gao, N. Rega, 
 G. Zheng, W. Liang, M. Hada, M. Ehara, K. Toyota, R. Fukuda, 
 J. Hasegawa, M. Ishida, T. Nakajima, Y. Honda, O. Kitao, H. Nakai, 
 T. Vreven, K. Throssell, J. A. Montgomery, Jr., J. E. Peralta, 
 F. Ogliaro, M. J. Bearpark, J. J. Heyd, E. N. Brothers, K. N. Kudin, 
 V. N. Staroverov, T. A. Keith, R. Kobayashi, J. Normand, 
 K. Raghavachari, A. P. Rendell, J. C. Burant, S. S. Iyengar, 
 J. Tomasi, M. Cossi, J. M. Millam, M. Klene, C. Adamo, R. Cammi, 
 J. W. Ochterski, R. L. Martin, K. Morokuma, O. Farkas, 
 J. B. Foresman, and D. J. Fox, Gaussian, Inc., Wallingford CT, 2016.
 
 ******************************************
 Gaussian 16:  EM64L-G16RevB.01 20-Dec-2017
                 9-Jul-2026 
 ******************************************
 %nproc=64
 Will use up to   64 processors via shared memory.
 -----------------------------------------
 #force b3lyp/3-21G* Geom=PrintInputOrient
 -----------------------------------------
 1/10=7,30=1,38=1/1,3;
 2/9=2000,12=2,17=6,18=5,40=1/2;
 3/5=5,7=1,11=2,25=1,30=1,71=1,74=-5/1,2,3;
 4//1;
 5/5=2,38=5/2;
 6/7=2,8=2,9=2,10=2,28=1/1;
 7/29=1/1,2,3,16;
 1/10=7,30=1/3;
 99//99;
 -------------------------------------------------
 Generated by MDDatasetMaker (Author: Jinzhe Zeng)
 -------------------------------------------------
 Symbolic Z-matrix:
 Charge =  0 Multiplicity = 1
 C                     8.49      18.139    6.576 
 H                     7.998     18.658    7.371 
 H                     9.28      17.539    6.977 
 H                     7.787     17.509    6.071 
 H                     8.895     18.847    5.884 
 

 GradGradGradGradGradGradGradGradGradGradGradGradGradGradGradGradGradGrad
 Berny optimization.
 Initialization pass.
 Trust Radius=3.00D-01 FncErr=1.00D-07 GrdErr=1.00D-07 EigMax=2.50D+02 EigMin=1.00D-04
 Number of steps in this run=      2 maximum allowed number of steps=      2.
 GradGradGradGradGradGradGradGradGradGradGradGradGradGradGradGradGradGrad

                          Input orientation:                          
 ---------------------------------------------------------------------
 Center     Atomic      Atomic             Coordinates (Angstroms)
 Number     Number       Type             X           Y           Z
 ---------------------------------------------------------------------
      1          6           0        8.490000   18.139000    6.576000
      2          1           0        7.998000   18.658000    7.371000
      3          1           0        9.280000   17.539000    6.977000
      4          1           0        7.787000   17.509000    6.071000
      5          1           0        8.895000   18.847000    5.884000
 ---------------------------------------------------------------------
                    Distance matrix (angstroms):
                    1          2          3          4          5
     1  C    0.000000
     2  H    1.069322   0.000000
     3  H    1.070000   1.746689   0.000000
     4  H    1.070576   1.747776   1.746650   0.000000
     5  H    1.069651   1.746854   1.747495   1.747248   0.000000
 Stoichiometry    CH4
 Framework group  C1[X(CH4)]
 Deg. of freedom     9
 Full point group                 C1      NOp   1
 Largest Abelian subgroup         C1      NOp   1
 Largest concise Abelian subgroup C1      NOp   1
                         Standard orientation:                         
 ---------------------------------------------------------------------
 Center     Atomic      Atomic             Coordinates (Angstroms)
 Number     Number       Type             X           Y           Z
 ---------------------------------------------------------------------
      1          6           0       -0.000314   -0.000006   -0.000039
      2          1           0       -0.660189   -0.534438   -0.649959
      3          1           0        0.364194   -0.659970    0.759226
      4          1           0        0.825242    0.382545   -0.564173
      5          1           0       -0.527364    0.811898    0.455137
 ---------------------------------------------------------------------
 Rotational constants (GHZ):         164.3569205         164.3072525         164.1786226
 Standard basis: 3-21G* (6D, 7F)
 There are    17 symmetry adapted cartesian basis functions of A   symmetry.
 There are    17 symmetry adapted basis functions of A   symmetry.
    17 basis functions,    27 primitive gaussians,    17 cartesian basis functions
     5 alpha electrons        5 beta electrons
       nuclear repulsion energy        13.6879597715 Hartrees.
 NAtoms=    5 NActive=    5 NUniq=    5 SFac= 1.00D+00 NAtFMM=   60 NAOKFM=F Big=F
 Integral buffers will be    131072 words long.
 Raffenetti 2 integral format.
 Two-electron integral symmetry is turned on.
 One-electron integrals computed using PRISM.
 PrsmSu:  requested number of processors reduced to:  31 ShMem   1 Linda.
 NBasis=    17 RedAO= T EigKep=  3.16D-02  NBF=    17
 NBsUse=    17 1.00D-06 EigRej= -1.00D+00 NBFU=    17
 ExpMin= 1.83D-01 ExpMax= 1.72D+02 ExpMxC= 1.72D+02 IAcc=3 IRadAn=         5 AccDes= 0.00D+00
 Harris functional with IExCor=  402 and IRadAn=       5 diagonalized for initial guess.
 HarFok:  IExCor=  402 AccDes= 0.00D+00 IRadAn=         5 IDoV= 1 UseB2=F ITyADJ=14
 ICtDFT=  3500011 ScaDFX=  1.000000  1.000000  1.000000  1.000000
 FoFCou: FMM=F IPFlag=           0 FMFlag=      100000 FMFlg1=           0
         NFxFlg=           0 DoJE=T BraDBF=F KetDBF=T FulRan=T
         wScrn=  0.000000 ICntrl=       500 IOpCl=  0 I1Cent=   200000004 NGrid=           0
         NMat0=    1 NMatS0=      1 NMatT0=    0 NMatD0=    1 NMtDS0=    0 NMtDT0=    0
 Petite list used in FoFCou.
 Keep R1 ints in memory in canonical form, NReq=55236554.
 Requested convergence on RMS density matrix=1.00D-08 within 128 cycles.
 Requested convergence on MAX density matrix=1.00D-06.
 Requested convergence on             energy=1.00D-06.
 No special actions if energy rises.
 Integral accuracy reduced to 1.0D-05 until final iterations.
 Initial convergence to 1.0D-05 achieved.  Increase integral accuracy.
 SCF Done:  E(RB3LYP) =  -40.3001459917     A.U. after    8 cycles
            NFock=  8  Conv=0.86D-08     -V/T= 2.0075

 **********************************************************************

            Population analysis using the SCF Density.

 **********************************************************************

 Orbital symmetries:
       Occupied  (A) (A) (A) (A) (A)
       Virtual   (A) (A) (A) (A) (A) (A) (A) (A) (A) (A) (A) (A)
 The electronic state is 1-A.
 Alpha  occ. eigenvalues --  -10.09010  -0.69710  -0.39311  -0.39304  -0.39263
 Alpha virt. eigenvalues --    0.15273   0.20178   0.20210   0.20220   0.69582
 Alpha virt. eigenvalues --    0.69608   0.69625   1.05765   1.07452   1.07519
 Alpha virt. eigenvalues --    1.07547   1.70671
          Condensed to atoms (all electrons):
               1          2          3          4          5
     1  C    5.301654   0.370578   0.370447   0.370416   0.370547
     2  H    0.370578   0.513583  -0.026792  -0.026685  -0.026766
     3  H    0.370447  -0.026792   0.514020  -0.026846  -0.026706
     4  H    0.370416  -0.026685  -0.026846   0.514183  -0.026766
     5  H    0.370547  -0.026766  -0.026706  -0.026766   0.513709
 Mulliken charges:
               1
     1  C   -0.783642
     2  H    0.196083
     3  H    0.195877
     4  H    0.195700
     5  H    0.195982
 Sum of Mulliken charges =   0.00000
 Mulliken charges with hydrogens summed into heavy atoms:
               1
     1  C    0.000000
 Electronic spatial extent (au):  <R**2>=             34.6261
 Charge=              0.0000 electrons
 Dipole moment (field-independent basis, Debye):
    X=              0.0003    Y=             -0.0003    Z=              0.0002  Tot=              0.0005
 Quadrupole moment (field-independent basis, Debye-Ang):
   XX=             -8.1919   YY=             -8.1925   ZZ=             -8.1967
   XY=             -0.0002   XZ=              0.0011   YZ=              0.0013
 Traceless Quadrupole moment (field-independent basis, Debye-Ang):
   XX=              0.0018   YY=              0.0012   ZZ=             -0.0030
   XY=             -0.0002   XZ=              0.0011   YZ=              0.0013
 Octapole moment (field-independent basis, Debye-Ang**2):
  XXX=              0.1258  YYY=              0.1088  ZZZ=              0.0566  XYY=             -0.1871
  XXY=              0.1195  XXZ=             -0.3187  XZZ=              0.0601  YZZ=             -0.2294
  YYZ=              0.2627  XYZ=             -0.5687
 Hexadecapole moment (field-independent basis, Debye-Ang**3):
 XXXX=            -14.5660 YYYY=            -14.5836 ZZZZ=            -14.6573 XXXY=              0.2334
 XXXZ=             -0.1697 YYYX=             -0.2580 YYYZ=              0.1024 ZZZX=              0.1555
 ZZZY=             -0.1414 XXYY=             -4.6229 XXZZ=             -4.5475 YYZZ=             -4.5253
 XXYZ=              0.0445 YYXZ=              0.0187 ZZXY=              0.0237
 N-N= 1.368795977151D+01 E-N=-1.200162191657D+02  KE= 3.999979572366D+01
 PrsmSu:  requested number of processors reduced to:  31 ShMem   1 Linda.
 Calling FoFJK, ICntrl=      2127 FMM=F ISym2X=0 I1Cent= 0 IOpClX= 0 NMat=1 NMatS=1 NMatT=0.
 ***** Axes restored to original set *****
 -------------------------------------------------------------------
 Center     Atomic                   Forces (Hartrees/Bohr)
 Number     Number              X              Y              Z
 -------------------------------------------------------------------
      1        6          -0.000119365   -0.000797295   -0.000416920
      2        1          -0.007950001    0.008317082    0.012705575
      3        1           0.012411126   -0.009245059    0.006250188
      4        1          -0.010793564   -0.009469535   -0.007639515
      5        1           0.006451804    0.011194807   -0.010899328
 -------------------------------------------------------------------
 Cartesian Forces:  Max     0.012705575 RMS     0.008654417

 GradGradGradGradGradGradGradGradGradGradGradGradGradGradGradGradGradGrad
 Berny optimization.
 Search for a local minimum.
 Step number   1 out of a maximum of    2
 All quantities printed in internal units (Hartrees-Bohrs-Radians)
 Second derivative matrix not updated -- first step.
 The second derivative matrix:
                          X1        Y1        Z1        X2        Y2
           X1           0.70767
           Y1          -0.00042   0.70885
           Z1          -0.00094  -0.00006   0.70923
           X2          -0.14169   0.06554   0.10046   0.12565
           Y2           0.06553  -0.14880  -0.10588  -0.07010   0.13323
           Z2           0.10047  -0.10591  -0.24187  -0.10741   0.11325
           X3          -0.23908   0.12127  -0.08097  -0.00535   0.00400
           Y3           0.12129  -0.17149   0.06157   0.00794  -0.00500
           Z3          -0.08097   0.06156  -0.12065   0.02243  -0.01536
           X4          -0.20537  -0.11293  -0.09044   0.02438   0.01274
           Y4          -0.11296  -0.18053  -0.08114  -0.01042  -0.00519
           Z4          -0.09045  -0.08112  -0.14444  -0.02093  -0.01126
           X5          -0.12154  -0.07346   0.07190  -0.00299  -0.01216
           Y5          -0.07344  -0.20804   0.12550   0.00704   0.02576
           Z5           0.07188   0.12552  -0.20227   0.00546   0.01924
                          Z2        X3        Y3        Z3        X4
           Z2           0.23275
           X3          -0.00592   0.22985
           Y3           0.00818  -0.12967   0.15759
           Z3           0.02391   0.08663  -0.06581   0.10317
           X4           0.00677  -0.00934  -0.01776  -0.00818   0.19383
           Y4          -0.00306   0.01376   0.02583   0.01154   0.12077
           Z4          -0.00561  -0.00416  -0.00750  -0.00302   0.09677
           X5           0.00609   0.02393   0.01819  -0.01992  -0.00350
           Y5          -0.01246  -0.00936  -0.00693   0.00806  -0.00281
           Z5          -0.00918   0.00443   0.00355  -0.00341  -0.00493
                          Y4        Z4        X5        Y5        Z5
           Y4           0.16728
           Z4           0.08674   0.12865
           X5          -0.01114   0.01877   0.10410
           Y5          -0.00739   0.01314   0.07857   0.19660
           Z5          -0.01408   0.02443  -0.07684  -0.13423   0.19043
 ITU=  0
     Eigenvalues ---    0.11739   0.11746   0.14149   0.14150   0.14165
     Eigenvalues ---    0.37244   0.86836   0.87048   0.87149
 Angle between quadratic step and forces=   1.48 degrees.
 Linear search not attempted -- first point.
 B after Tr=     0.000003   -0.000188   -0.000058
         Rot=    1.000000    0.000000    0.000000    0.000000 Ang=   0.00 deg.
 Variable       Old X    -DE/DX   Delta X   Delta X   Delta X     New X
                                 (Linear)    (Quad)   (Total)
    X1       16.04377  -0.00012   0.00000   0.00001   0.00002  16.04379
    Y1       34.27774  -0.00080   0.00000  -0.00065  -0.00083  34.27691
    Z1       12.42684  -0.00042   0.00000  -0.00020  -0.00026  12.42658
    X2       15.11403  -0.00795   0.00000  -0.02162  -0.02162  15.09241
    Y2       35.25851   0.00832   0.00000   0.02186   0.02167  35.28018
    Z2       13.92917   0.01271   0.00000   0.03350   0.03345  13.96262
    X3       17.53666   0.01241   0.00000   0.03397   0.03397  17.57063
    Y3       33.14391  -0.00925   0.00000  -0.02460  -0.02479  33.11912
    Z3       13.18462   0.00625   0.00000   0.01668   0.01662  13.20124
    X4       14.71530  -0.01079   0.00000  -0.02988  -0.02987  14.68543
    Y4       33.08721  -0.00947   0.00000  -0.02531  -0.02550  33.06172
    Z4       11.47253  -0.00764   0.00000  -0.02062  -0.02067  11.45185
    X5       16.80911   0.00645   0.00000   0.01750   0.01750  16.82662
    Y5       35.61567   0.01119   0.00000   0.02964   0.02945  35.64512
    Z5       11.11915  -0.01090   0.00000  -0.02908  -0.02914  11.09001
         Item               Value     Threshold  Converged?
 Maximum Force            0.012706     0.000450     NO 
 RMS     Force            0.008654     0.000300     NO 
 Maximum Displacement     0.033971     0.001800     NO 
 RMS     Displacement     0.023229     0.001200     NO 
 Predicted change in Energy=-1.507264D-03
 GradGradGradGradGradGradGradGradGradGradGradGradGradGradGradGradGradGrad

 1\1\GINC-H08R06\Force\RB3LYP\3-21G*\C1H4\ACKGYDJ0BD\09-Jul-2026\0\\#fo
 rce b3lyp/3-21G* Geom=PrintInputOrient\\Generated by MDDatasetMaker (A
 uthor: Jinzhe Zeng)\\0,1\C,8.49,18.139,6.576\H,7.998,18.658,7.371\H,9.
 28,17.539,6.977\H,7.787,17.509,6.071\H,8.895,18.847,5.884\\Version=EM6
 4L-G16RevB.01\State=1-A\HF=-40.300146\RMSD=8.617e-09\RMSF=8.654e-03\Di
 pole=0.0000895,-0.0001661,0.0000567\Quadrupole=-0.0025701,0.001448,0.0
 011221,-0.0002257,-0.0006251,0.0001262\PG=C01 [X(C1H4)]\\@


 Ideas are like rabbits. You get a couple and learn
 how to handle them, and pretty soon you have a dozen.
                                    -- John Steinbeck
 Job cpu time:       0 days  0 hours  2 minutes 38.1 seconds.
 Elapsed time:       0 days  0 hours  0 minutes  3.3 seconds.
 File lengths (MBytes):  RWF=      6 Int=      0 D2E=      0 Chk=      1 Scr=      1
 Normal termination of Gaussian 16 at Thu Jul  9 10:27:04 2026.
