 Entering Gaussian System, Link 0=g16
 Input=loop1_H1_06.gjf
 Output=loop1_H1_06.log
 Initial command:
 /work/home/ackgydj0bd/apprepo/gaussian/16b.01-none_v1.3/app/g16/l1.exe "/work/home/ackgydj0bd/apprepo/gaussian/16b.01-none_v1.3/app/g16/scratch/Gau-12259.inp" -scrdir="/work/home/ackgydj0bd/apprepo/gaussian/16b.01-none_v1.3/app/g16/scratch/"
 Entering Link 1 = /work/home/ackgydj0bd/apprepo/gaussian/16b.01-none_v1.3/app/g16/l1.exe PID=     12260.
  
 Copyright (c) 1988-2017, Gaussian, Inc.  All Rights Reserved.
  
 This is part of the Gaussian(R) 16 program.  It is based on
 the Gaussian(R) 09 system (copyright 2009, Gaussian, Inc.),
 the Gaussian(R) 03 system (copyright 2003, Gaussian, Inc.),
 the Gaussian(R) 98 system (copyright 1998, Gaussian, Inc.),
 the Gaussian(R) 94 system (copyright 1995, Gaussian, Inc.),
 the Gaussian 92(TM) system (copyright 1992, Gaussian, Inc.),
 the Gaussian 90(TM) system (copyright 1990, Gaussian, Inc.),
 the Gaussian 88(TM) system (copyright 1988, Gaussian, Inc.),
 the Gaussian 86(TM) system (copyright 1986, Carnegie Mellon
 University), and the Gaussian 82(TM) system (copyright 1983,
 Carnegie Mellon University). Gaussian is a federally registered
 trademark of Gaussian, Inc.
  
 This software contains proprietary and confidential information,
 including trade secrets, belonging to Gaussian, Inc.
  
 This software is provided under written license and may be
 used, copied, transmitted, or stored only in accord with that
 written license.
  
 The following legend is applicable only to US Government
 contracts under FAR:
  
                    RESTRICTED RIGHTS LEGEND
  
 Use, reproduction and disclosure by the US Government is
 subject to restrictions as set forth in subparagraphs (a)
 and (c) of the Commercial Computer Software - Restricted
 Rights clause in FAR 52.227-19.
  
 Gaussian, Inc.
 340 Quinnipiac St., Bldg. 40, Wallingford CT 06492
  
  
 ---------------------------------------------------------------
 Warning -- This program may not be used in any manner that
 competes with the business of Gaussian, Inc. or will provide
 assistance to any competitor of Gaussian, Inc.  The licensee
 of this program is prohibited from giving any competitor of
 Gaussian, Inc. access to this program.  By using this program,
 the user acknowledges that Gaussian, Inc. is engaged in the
 business of creating and licensing software in the field of
 computational chemistry and represents and warrants to the
 licensee that it is not a competitor of Gaussian, Inc. and that
 it will not use this program in any manner prohibited above.
 ---------------------------------------------------------------
  

 Cite this work as:
 Gaussian 16, Revision B.01,
 M. J. Frisch, G. W. Trucks, H. B. Schlegel, G. E. Scuseria, 
 M. A. Robb, J. R. Cheeseman, G. Scalmani, V. Barone, 
 G. A. Petersson, H. Nakatsuji, X. Li, M. Caricato, A. V. Marenich, 
 J. Bloino, B. G. Janesko, R. Gomperts, B. Mennucci, H. P. Hratchian, 
 J. V. Ortiz, A. F. Izmaylov, J. L. Sonnenberg, D. Williams-Young, 
 F. Ding, F. Lipparini, F. Egidi, J. Goings, B. Peng, A. Petrone, 
 T. Henderson, D. Ranasinghe, V. G. Zakrzewski, J. Gao, N. Rega, 
 G. Zheng, W. Liang, M. Hada, M. Ehara, K. Toyota, R. Fukuda, 
 J. Hasegawa, M. Ishida, T. Nakajima, Y. Honda, O. Kitao, H. Nakai, 
 T. Vreven, K. Throssell, J. A. Montgomery, Jr., J. E. Peralta, 
 F. Ogliaro, M. J. Bearpark, J. J. Heyd, E. N. Brothers, K. N. Kudin, 
 V. N. Staroverov, T. A. Keith, R. Kobayashi, J. Normand, 
 K. Raghavachari, A. P. Rendell, J. C. Burant, S. S. Iyengar, 
 J. Tomasi, M. Cossi, J. M. Millam, M. Klene, C. Adamo, R. Cammi, 
 J. W. Ochterski, R. L. Martin, K. Morokuma, O. Farkas, 
 J. B. Foresman, and D. J. Fox, Gaussian, Inc., Wallingford CT, 2016.
 
 ******************************************
 Gaussian 16:  EM64L-G16RevB.01 20-Dec-2017
                 9-Jul-2026 
 ******************************************
 %nproc=64
 Will use up to   64 processors via shared memory.
 -----------------------------------------
 #force b3lyp/3-21G* Geom=PrintInputOrient
 -----------------------------------------
 1/10=7,30=1,38=1/1,3;
 2/9=2000,12=2,17=6,18=5,40=1/2;
 3/5=5,7=1,11=2,25=1,30=1,71=1,74=-5/1,2,3;
 4//1;
 5/5=2,38=5/2;
 6/7=2,8=2,9=2,10=2,28=1/1;
 7/29=1/1,2,3,16;
 1/10=7,30=1/3;
 99//99;
 -------------------------------------------------
 Generated by MDDatasetMaker (Author: Jinzhe Zeng)
 -------------------------------------------------
 Symbolic Z-matrix:
 Charge =  0 Multiplicity = 2
 H                     5.50144   8.09857   19.0207 
 C                     5.26181   8.62825   19.508 
 H                     5.85653   7.95441   20.3434 
 H                     3.88468   8.46786   19.7492 
 H                     4.82498   7.82836   19.5337 
 H                     6.67213   9.25544   18.1098 
 C                     5.42521   7.4553    18.0191 
 

 GradGradGradGradGradGradGradGradGradGradGradGradGradGradGradGradGradGrad
 Berny optimization.
 Initialization pass.
 Trust Radius=3.00D-01 FncErr=1.00D-07 GrdErr=1.00D-07 EigMax=2.50D+02 EigMin=1.00D-04
 Number of steps in this run=      2 maximum allowed number of steps=      2.
 GradGradGradGradGradGradGradGradGradGradGradGradGradGradGradGradGradGrad

                          Input orientation:                          
 ---------------------------------------------------------------------
 Center     Atomic      Atomic             Coordinates (Angstroms)
 Number     Number       Type             X           Y           Z
 ---------------------------------------------------------------------
      1          1           0        5.501440    8.098570   19.020700
      2          6           0        5.261810    8.628250   19.508000
      3          1           0        5.856530    7.954410   20.343400
      4          1           0        3.884680    8.467860   19.749200
      5          1           0        4.824980    7.828360   19.533700
      6          1           0        6.672130    9.255440   18.109800
      7          6           0        5.425210    7.455300   18.019100
 ---------------------------------------------------------------------
                    Distance matrix (angstroms):
                    1          2          3          4          5
     1  H    0.000000
     2  C    0.758581   0.000000
     3  H    1.377101   1.227047   0.000000
     4  H    1.811353   1.407263   2.122474   0.000000
     5  H    0.890944   0.911759   1.317421   1.157396   0.000000
     6  H    1.881117   2.082626   2.710508   3.328332   2.734230
     7  C    1.192816   1.902455   2.416096   2.528192   1.671366
                    6          7
     6  H    0.000000
     7  C    2.191698   0.000000
 Stoichiometry    C2H5(2)
 Framework group  C1[X(C2H5)]
 Deg. of freedom    15
 Full point group                 C1      NOp   1
 Largest Abelian subgroup         C1      NOp   1
 Largest concise Abelian subgroup C1      NOp   1
                         Standard orientation:                         
 ---------------------------------------------------------------------
 Center     Atomic      Atomic             Coordinates (Angstroms)
 Number     Number       Type             X           Y           Z
 ---------------------------------------------------------------------
      1          1           0       -0.026601    0.093171    0.151273
      2          6           0       -0.741437    0.173897   -0.089428
      3          1           0       -1.022333    0.096739    1.102541
      4          1           0       -1.178659   -1.017781   -0.696988
      5          1           0       -0.493761   -0.665313    0.166867
      6          1           0        0.486529    1.839686   -0.323055
      7          6           0        1.113908   -0.231647    0.022655
 ---------------------------------------------------------------------
 Rotational constants (GHZ):          66.5346564          19.0703137          16.7380379
 Standard basis: 3-21G* (6D, 7F)
 There are    28 symmetry adapted cartesian basis functions of A   symmetry.
 There are    28 symmetry adapted basis functions of A   symmetry.
    28 basis functions,    45 primitive gaussians,    28 cartesian basis functions
     9 alpha electrons        8 beta electrons
       nuclear repulsion energy        35.8375875563 Hartrees.
 NAtoms=    7 NActive=    7 NUniq=    7 SFac= 1.00D+00 NAtFMM=   60 NAOKFM=F Big=F
 Integral buffers will be    131072 words long.
 Raffenetti 2 integral format.
 Two-electron integral symmetry is turned on.
 One-electron integrals computed using PRISM.
 PrsmSu:  requested number of processors reduced to:  31 ShMem   1 Linda.
 NBasis=    28 RedAO= T EigKep=  3.44D-03  NBF=    28
 NBsUse=    28 1.00D-06 EigRej= -1.00D+00 NBFU=    28
 ExpMin= 1.83D-01 ExpMax= 1.72D+02 ExpMxC= 1.72D+02 IAcc=3 IRadAn=         5 AccDes= 0.00D+00
 Harris functional with IExCor=  402 and IRadAn=       5 diagonalized for initial guess.
 HarFok:  IExCor=  402 AccDes= 0.00D+00 IRadAn=         5 IDoV= 1 UseB2=F ITyADJ=14
 ICtDFT=  3500011 ScaDFX=  1.000000  1.000000  1.000000  1.000000
 FoFCou: FMM=F IPFlag=           0 FMFlag=      100000 FMFlg1=           0
         NFxFlg=           0 DoJE=T BraDBF=F KetDBF=T FulRan=T
         wScrn=  0.000000 ICntrl=       500 IOpCl=  0 I1Cent=   200000004 NGrid=           0
         NMat0=    1 NMatS0=      1 NMatT0=    0 NMatD0=    1 NMtDS0=    0 NMtDT0=    0
 Petite list used in FoFCou.
 Initial guess <Sx>= 0.0000 <Sy>= 0.0000 <Sz>= 0.5000 <S**2>= 0.7500 S= 0.5000
 Keep R1 and R2 ints in memory in canonical form, NReq=55435599.
 Requested convergence on RMS density matrix=1.00D-08 within 128 cycles.
 Requested convergence on MAX density matrix=1.00D-06.
 Requested convergence on             energy=1.00D-06.
 No special actions if energy rises.
 Integral accuracy reduced to 1.0D-05 until final iterations.
 EnCoef did     3 forward-backward iterations
 Rare condition: small coef for last iteration:  0.000D+00
 Rare condition: small coef for last iteration:  0.000D+00
 Initial convergence to 1.0D-05 achieved.  Increase integral accuracy.
 SCF Done:  E(UB3LYP) =  -77.9034173745     A.U. after   28 cycles
            NFock= 28  Conv=0.87D-08     -V/T= 1.9897
 <Sx>= 0.0000 <Sy>= 0.0000 <Sz>= 0.5000 <S**2>= 0.7597 S= 0.5048
 <L.S>= 0.000000000000E+00
 Annihilation of the first spin contaminant:
 S**2 before annihilation     0.7597,   after     0.7500

 **********************************************************************

            Population analysis using the SCF Density.

 **********************************************************************

 Orbital symmetries:
 Alpha Orbitals:
       Occupied  (A) (A) (A) (A) (A) (A) (A) (A) (A)
       Virtual   (A) (A) (A) (A) (A) (A) (A) (A) (A) (A) (A) (A)
                 (A) (A) (A) (A) (A) (A) (A)
 Beta  Orbitals:
       Occupied  (A) (A) (A) (A) (A) (A) (A) (A)
       Virtual   (A) (A) (A) (A) (A) (A) (A) (A) (A) (A) (A) (A)
                 (A) (A) (A) (A) (A) (A) (A) (A)
 The electronic state is 2-A.
 Alpha  occ. eigenvalues --  -10.23047 -10.17942  -1.03812  -0.61260  -0.48137
 Alpha  occ. eigenvalues --   -0.41016  -0.36051  -0.24539  -0.20339
 Alpha virt. eigenvalues --   -0.10896  -0.07218  -0.01158   0.08446   0.17776
 Alpha virt. eigenvalues --    0.40958   0.58751   0.67168   0.68099   0.76732
 Alpha virt. eigenvalues --    0.79232   0.79942   0.87795   0.93162   0.99631
 Alpha virt. eigenvalues --    1.11067   1.33580   1.53787   1.88702
  Beta  occ. eigenvalues --  -10.21840 -10.17964  -1.03315  -0.59094  -0.46744
  Beta  occ. eigenvalues --   -0.39058  -0.35264  -0.19545
  Beta virt. eigenvalues --   -0.09942  -0.08333  -0.05629  -0.00019   0.08621
  Beta virt. eigenvalues --    0.18005   0.42240   0.59220   0.67541   0.73092
  Beta virt. eigenvalues --    0.78305   0.80233   0.80590   0.88861   0.93490
  Beta virt. eigenvalues --    1.01080   1.11327   1.36043   1.54537   1.89036
          Condensed to atoms (all electrons):
               1          2          3          4          5          6
     1  H    1.524652  -0.262267  -0.019530  -0.093061  -0.265749  -0.012567
     2  C   -0.262267   6.288350   0.334120   0.328519   0.000648  -0.071507
     3  H   -0.019530   0.334120   0.610886  -0.022028  -0.045429  -0.001663
     4  H   -0.093061   0.328519  -0.022028   0.626767  -0.039979   0.003059
     5  H   -0.265749   0.000648  -0.045429  -0.039979   1.163482   0.006533
     6  H   -0.012567  -0.071507  -0.001663   0.003059   0.006533   0.986311
     7  C   -0.106692  -0.073985  -0.010866   0.002471  -0.031968   0.140705
               7
     1  H   -0.106692
     2  C   -0.073985
     3  H   -0.010866
     4  H    0.002471
     5  H   -0.031968
     6  H    0.140705
     7  C    6.282024
          Atomic-Atomic Spin Densities.
               1          2          3          4          5          6
     1  H    0.291094  -0.159480  -0.031471   0.037204  -0.060902  -0.018478
     2  C   -0.159480   0.056960   0.029359  -0.023661   0.050807   0.004167
     3  H   -0.031471   0.029359   0.012795  -0.004023   0.002806   0.000134
     4  H    0.037204  -0.023661  -0.004023   0.075123  -0.022566  -0.000708
     5  H   -0.060902   0.050807   0.002806  -0.022566   0.034073   0.002769
     6  H   -0.018478   0.004167   0.000134  -0.000708   0.002769   0.092737
     7  C   -0.033243   0.014693  -0.004373  -0.007075  -0.010554  -0.000273
               7
     1  H   -0.033243
     2  C    0.014693
     3  H   -0.004373
     4  H   -0.007075
     5  H   -0.010554
     6  H   -0.000273
     7  C    0.906953
 Mulliken charges and spin densities:
               1          2
     1  H    0.235215   0.024724
     2  C   -0.543878  -0.027155
     3  H    0.154510   0.005229
     4  H    0.194251   0.054293
     5  H    0.212462  -0.003566
     6  H   -0.050871   0.080348
     7  C   -0.201689   0.866128
 Sum of Mulliken charges =   0.00000   1.00000
 Mulliken charges and spin densities with hydrogens summed into heavy atoms:
               1          2
     2  C    0.201689   0.133872
     7  C   -0.201689   0.866128
 Electronic spatial extent (au):  <R**2>=            112.2145
 Charge=              0.0000 electrons
 Dipole moment (field-independent basis, Debye):
    X=             -1.5543    Y=             -2.4506    Z=              0.8610  Tot=              3.0270
 Quadrupole moment (field-independent basis, Debye-Ang):
   XX=            -17.8597   YY=            -16.4867   ZZ=            -15.9555
   XY=              1.8637   XZ=             -0.4621   YZ=              0.8847
 Traceless Quadrupole moment (field-independent basis, Debye-Ang):
   XX=             -1.0924   YY=              0.2806   ZZ=              0.8118
   XY=              1.8637   XZ=             -0.4621   YZ=              0.8847
 Octapole moment (field-independent basis, Debye-Ang**2):
  XXX=             -3.1250  YYY=             -4.9953  ZZZ=              2.3552  XYY=             -3.8765
  XXY=             -4.4549  XXZ=              0.8074  XZZ=             -2.4240  YZZ=             -1.6397
  YYZ=             -0.4981  XYZ=             -1.0417
 Hexadecapole moment (field-independent basis, Debye-Ang**3):
 XXXX=            -95.5667 YYYY=            -52.7568 ZZZZ=            -25.7056 XXXY=              1.3173
 XXXZ=             -0.0856 YYYX=              0.8113 YYYZ=              1.9409 ZZZX=             -1.6204
 ZZZY=              1.3312 XXYY=            -25.7808 XXZZ=            -20.8843 YYZZ=            -12.9973
 XXYZ=              1.3882 YYXZ=              1.1832 ZZXY=              0.8741
 N-N= 3.583758755626D+01 E-N=-2.517111584073D+02  KE= 7.871287267046D+01
                          Isotropic Fermi Contact Couplings
        Atom                 a.u.       MegaHertz       Gauss      10(-4) cm-1
     1  H(1)              -0.00308     -13.77314      -4.91460      -4.59422
     2  C(13)             -0.03282     -36.89241     -13.16413     -12.30598
     3  H(1)               0.00521      23.27047       8.30348       7.76219
     4  H(1)               0.01496      66.88910      23.86770      22.31180
     5  H(1)               0.00777      34.71226      12.38620      11.57876
     6  H(1)               0.02272     101.55178      36.23620      33.87403
     7  C(13)              0.05914      66.48347      23.72295      22.17650
 --------------------------------------------------------
       Center         ----  Spin Dipole Couplings  ----
                      3XX-RR        3YY-RR        3ZZ-RR
 --------------------------------------------------------
     1   Atom        0.072226     -0.044983     -0.027242
     2   Atom        0.006185      0.008888     -0.015073
     3   Atom        0.010623     -0.008999     -0.001624
     4   Atom        0.010003     -0.004684     -0.005318
     5   Atom        0.028489     -0.013166     -0.015322
     6   Atom       -0.008415      0.015725     -0.007309
     7   Atom       -0.473266     -0.631978      1.105244
 --------------------------------------------------------
                        XY            XZ            YZ
 --------------------------------------------------------
     1   Atom       -0.024812      0.010762      0.000014
     2   Atom       -0.027244      0.015627     -0.029802
     3   Atom       -0.003202     -0.010166      0.003752
     4   Atom        0.003949      0.003853      0.000376
     5   Atom        0.012310     -0.002408      0.003374
     6   Atom       -0.008855     -0.000033     -0.001964
     7   Atom       -0.027072     -0.215444      0.066137
 --------------------------------------------------------


 ---------------------------------------------------------------------------------
              Anisotropic Spin Dipole Couplings in Principal Axis System
 ---------------------------------------------------------------------------------

       Atom             a.u.   MegaHertz   Gauss  10(-4) cm-1        Axes

              Baa    -0.0502   -26.800    -9.563    -8.939  0.2058  0.9738 -0.0970
     1 H(1)   Bbb    -0.0281   -14.985    -5.347    -4.999 -0.0778  0.1150  0.9903
              Bcc     0.0783    41.785    14.910    13.938  0.9755 -0.1963  0.0994
 
              Baa    -0.0354    -4.752    -1.696    -1.585  0.0870  0.5923  0.8010
     2 C(13)  Bbb    -0.0156    -2.087    -0.745    -0.696  0.8145  0.4206 -0.3996
              Bcc     0.0510     6.839     2.440     2.281 -0.5736  0.6872 -0.4458
 
              Baa    -0.0107    -5.689    -2.030    -1.898 -0.0909  0.8794 -0.4674
     3 H(1)   Bbb    -0.0065    -3.484    -1.243    -1.162  0.5169  0.4428  0.7326
              Bcc     0.0172     9.172     3.273     3.060  0.8512 -0.1750 -0.4948
 
              Baa    -0.0065    -3.489    -1.245    -1.164 -0.3067  0.4872  0.8176
     4 H(1)   Bbb    -0.0053    -2.834    -1.011    -0.945 -0.0831  0.8421 -0.5330
              Bcc     0.0119     6.323     2.256     2.109  0.9482  0.2314  0.2178
 
              Baa    -0.0199   -10.607    -3.785    -3.538 -0.2173  0.7261 -0.6523
     5 H(1)   Bbb    -0.0120    -6.412    -2.288    -2.139 -0.1482  0.6360  0.7573
              Bcc     0.0319    17.019     6.073     5.677  0.9648  0.2613 -0.0305
 
              Baa    -0.0114    -6.092    -2.174    -2.032  0.9352  0.3166  0.1589
     6 H(1)   Bbb    -0.0073    -3.915    -1.397    -1.306 -0.1732  0.0174  0.9847
              Bcc     0.0188    10.008     3.571     3.338 -0.3090  0.9484 -0.0711
 
              Baa    -0.6371   -85.491   -30.505   -28.517  0.1364  0.9904 -0.0207
     7 C(13)  Bbb    -0.4997   -67.060   -23.929   -22.369  0.9817 -0.1323  0.1372
              Bcc     1.1368   152.551    54.434    50.886 -0.1332  0.0391  0.9903
 

 ---------------------------------------------------------------------------------

 PrsmSu:  requested number of processors reduced to:  31 ShMem   1 Linda.
 Calling FoFJK, ICntrl=      2127 FMM=F ISym2X=0 I1Cent= 0 IOpClX= 1 NMat=1 NMatS=1 NMatT=0.
 ***** Axes restored to original set *****
 -------------------------------------------------------------------
 Center     Atomic                   Forces (Hartrees/Bohr)
 Number     Number              X              Y              Z
 -------------------------------------------------------------------
      1        1           0.249212747   -0.370176064   -0.447089667
      2        6          -0.188623445    0.535959031    0.527251506
      3        1          -0.003924290    0.063798000    0.004821462
      4        1           0.064173237    0.038262473   -0.010890125
      5        1          -0.172031865   -0.224781995    0.083238138
      6        1          -0.002746241   -0.043895987   -0.031110460
      7        6           0.053939857    0.000834542   -0.126220853
 -------------------------------------------------------------------
 Cartesian Forces:  Max     0.535959031 RMS     0.230780852

 GradGradGradGradGradGradGradGradGradGradGradGradGradGradGradGradGradGrad
 Berny optimization.
 Search for a local minimum.
 Step number   1 out of a maximum of    2
 All quantities printed in internal units (Hartrees-Bohrs-Radians)
 Second derivative matrix not updated -- first step.
 ITU=  0
     Eigenvalues ---    0.08214   0.10039   0.13206   0.20590   0.23907
     Eigenvalues ---    0.32839   0.36623   0.46481   0.65269   0.73813
     Eigenvalues ---    0.93367   1.20987   1.40641   2.43626   3.05554
 Quadratic step=1.177D+00 exceeds max=3.000D-01 adjusted using Lamda=-1.147D+00.
 Angle between NR and scaled steps=  42.59 degrees.
 Angle between quadratic step and forces=  25.31 degrees.
 Linear search not attempted -- first point.
 B after Tr=     0.093707    0.197492   -0.099506
         Rot=    0.999995   -0.002808    0.000964   -0.000889 Ang=  -0.36 deg.
 Variable       Old X    -DE/DX   Delta X   Delta X   Delta X     New X
                                 (Linear)    (Quad)   (Total)
    X1       10.39621   0.24921   0.00000   0.05951   0.05714  10.45335
    Y1       15.30408  -0.37018   0.00000  -0.08630  -0.07189  15.23219
    Z1       35.94391  -0.44709   0.00000  -0.10654  -0.10102  35.84290
    X2        9.94338  -0.18862   0.00000  -0.04648  -0.05318   9.89020
    Y2       16.30503   0.53596   0.00000   0.09301   0.09989  16.40492
    Z2       36.86478   0.52725   0.00000   0.13278   0.14383  37.00860
    X3       11.06724  -0.00392   0.00000   0.00393  -0.00322  11.06401
    Y3       15.03166   0.06380   0.00000   0.05254   0.05336  15.08502
    Z3       38.44345   0.00482   0.00000   0.00687   0.01278  38.45624
    X4        7.34098   0.06417   0.00000   0.05247   0.04580   7.38678
    Y4       16.00194   0.03826   0.00000   0.03711   0.03776  16.03969
    Z4       37.32058  -0.01089   0.00000  -0.00221   0.00198  37.32256
    X5        9.11789  -0.17203   0.00000  -0.07324  -0.07684   9.04105
    Y5       14.79346  -0.22478   0.00000  -0.10178  -0.09619  14.69727
    Z5       36.91334   0.08324   0.00000   0.05035   0.05016  36.96350
    X6       12.60850  -0.00275   0.00000   0.00187  -0.00133  12.60717
    Y6       17.49025  -0.04390   0.00000  -0.03760  -0.01018  17.48007
    Z6       34.22256  -0.03111   0.00000  -0.02856  -0.00630  34.21626
    X7       10.25216   0.05394   0.00000   0.02829   0.03163  10.28379
    Y7       14.08848   0.00083   0.00000  -0.03748  -0.01276  14.07571
    Z7       34.05116  -0.12622   0.00000  -0.10009  -0.10143  33.94973
         Item               Value     Threshold  Converged?
 Maximum Force            0.535959     0.000450     NO 
 RMS     Force            0.230781     0.000300     NO 
 Maximum Displacement     0.143827     0.001800     NO 
 RMS     Displacement     0.064715     0.001200     NO 
 Predicted change in Energy=-1.966870D-01
 GradGradGradGradGradGradGradGradGradGradGradGradGradGradGradGradGradGrad

 1\1\GINC-H08R06\Force\UB3LYP\3-21G*\C2H5(2)\ACKGYDJ0BD\09-Jul-2026\0\\
 #force b3lyp/3-21G* Geom=PrintInputOrient\\Generated by MDDatasetMaker
  (Author: Jinzhe Zeng)\\0,2\H,5.50144,8.09857,19.0207\C,5.26181,8.6282
 5,19.508\H,5.85653,7.95441,20.3434\H,3.88468,8.46786,19.7492\H,4.82498
 ,7.82836,19.5337\H,6.67213,9.25544,18.1098\C,5.42521,7.4553,18.0191\\V
 ersion=EM64L-G16RevB.01\State=2-A\HF=-77.9034174\S2=0.759679\S2-1=0.\S
 2A=0.750024\RMSD=8.679e-09\RMSF=2.308e-01\Dipole=-0.6722355,-0.5371468
 ,0.8233132\Quadrupole=1.2867416,-1.3579354,0.0711939,-0.2751986,-0.315
 3228,-1.0377265\PG=C01 [X(C2H5)]\\@


 TWO ROADS DIVERGED IN A WOOD, AND I--
 I TOOK THE ONE LESS TRAVELED BY,
 AND THAT HAS MADE ALL THE DIFFERENCE.

                       -- ROBERT FROST
 Job cpu time:       0 days  0 hours  2 minutes 52.6 seconds.
 Elapsed time:       0 days  0 hours  0 minutes  3.6 seconds.
 File lengths (MBytes):  RWF=      6 Int=      0 D2E=      0 Chk=      1 Scr=      1
 Normal termination of Gaussian 16 at Thu Jul  9 10:28:35 2026.
