 Entering Gaussian System, Link 0=g16
 Input=data_C1111_06.gjf
 Output=data_C1111_06.log
 Initial command:
 /work/home/ackgydj0bd/apprepo/gaussian/16b.01-none_v1.3/app/g16/l1.exe "/work/home/ackgydj0bd/apprepo/gaussian/16b.01-none_v1.3/app/g16/scratch/Gau-30040.inp" -scrdir="/work/home/ackgydj0bd/apprepo/gaussian/16b.01-none_v1.3/app/g16/scratch/"
 Entering Link 1 = /work/home/ackgydj0bd/apprepo/gaussian/16b.01-none_v1.3/app/g16/l1.exe PID=     30041.
  
 Copyright (c) 1988-2017, Gaussian, Inc.  All Rights Reserved.
  
 This is part of the Gaussian(R) 16 program.  It is based on
 the Gaussian(R) 09 system (copyright 2009, Gaussian, Inc.),
 the Gaussian(R) 03 system (copyright 2003, Gaussian, Inc.),
 the Gaussian(R) 98 system (copyright 1998, Gaussian, Inc.),
 the Gaussian(R) 94 system (copyright 1995, Gaussian, Inc.),
 the Gaussian 92(TM) system (copyright 1992, Gaussian, Inc.),
 the Gaussian 90(TM) system (copyright 1990, Gaussian, Inc.),
 the Gaussian 88(TM) system (copyright 1988, Gaussian, Inc.),
 the Gaussian 86(TM) system (copyright 1986, Carnegie Mellon
 University), and the Gaussian 82(TM) system (copyright 1983,
 Carnegie Mellon University). Gaussian is a federally registered
 trademark of Gaussian, Inc.
  
 This software contains proprietary and confidential information,
 including trade secrets, belonging to Gaussian, Inc.
  
 This software is provided under written license and may be
 used, copied, transmitted, or stored only in accord with that
 written license.
  
 The following legend is applicable only to US Government
 contracts under FAR:
  
                    RESTRICTED RIGHTS LEGEND
  
 Use, reproduction and disclosure by the US Government is
 subject to restrictions as set forth in subparagraphs (a)
 and (c) of the Commercial Computer Software - Restricted
 Rights clause in FAR 52.227-19.
  
 Gaussian, Inc.
 340 Quinnipiac St., Bldg. 40, Wallingford CT 06492
  
  
 ---------------------------------------------------------------
 Warning -- This program may not be used in any manner that
 competes with the business of Gaussian, Inc. or will provide
 assistance to any competitor of Gaussian, Inc.  The licensee
 of this program is prohibited from giving any competitor of
 Gaussian, Inc. access to this program.  By using this program,
 the user acknowledges that Gaussian, Inc. is engaged in the
 business of creating and licensing software in the field of
 computational chemistry and represents and warrants to the
 licensee that it is not a competitor of Gaussian, Inc. and that
 it will not use this program in any manner prohibited above.
 ---------------------------------------------------------------
  

 Cite this work as:
 Gaussian 16, Revision B.01,
 M. J. Frisch, G. W. Trucks, H. B. Schlegel, G. E. Scuseria, 
 M. A. Robb, J. R. Cheeseman, G. Scalmani, V. Barone, 
 G. A. Petersson, H. Nakatsuji, X. Li, M. Caricato, A. V. Marenich, 
 J. Bloino, B. G. Janesko, R. Gomperts, B. Mennucci, H. P. Hratchian, 
 J. V. Ortiz, A. F. Izmaylov, J. L. Sonnenberg, D. Williams-Young, 
 F. Ding, F. Lipparini, F. Egidi, J. Goings, B. Peng, A. Petrone, 
 T. Henderson, D. Ranasinghe, V. G. Zakrzewski, J. Gao, N. Rega, 
 G. Zheng, W. Liang, M. Hada, M. Ehara, K. Toyota, R. Fukuda, 
 J. Hasegawa, M. Ishida, T. Nakajima, Y. Honda, O. Kitao, H. Nakai, 
 T. Vreven, K. Throssell, J. A. Montgomery, Jr., J. E. Peralta, 
 F. Ogliaro, M. J. Bearpark, J. J. Heyd, E. N. Brothers, K. N. Kudin, 
 V. N. Staroverov, T. A. Keith, R. Kobayashi, J. Normand, 
 K. Raghavachari, A. P. Rendell, J. C. Burant, S. S. Iyengar, 
 J. Tomasi, M. Cossi, J. M. Millam, M. Klene, C. Adamo, R. Cammi, 
 J. W. Ochterski, R. L. Martin, K. Morokuma, O. Farkas, 
 J. B. Foresman, and D. J. Fox, Gaussian, Inc., Wallingford CT, 2016.
 
 ******************************************
 Gaussian 16:  EM64L-G16RevB.01 20-Dec-2017
                 8-Jul-2026 
 ******************************************
 %nproc=64
 Will use up to   64 processors via shared memory.
 %mem=128GB
 -----------------------------------------
 #force b3lyp/3-21G* Geom=PrintInputOrient
 -----------------------------------------
 1/10=7,30=1,38=1/1,3;
 2/9=2000,12=2,17=6,18=5,40=1/2;
 3/5=5,7=1,11=2,25=1,30=1,71=1,74=-5/1,2,3;
 4//1;
 5/5=2,38=5/2;
 6/7=2,8=2,9=2,10=2,28=1/1;
 7/29=1/1,2,3,16;
 1/10=7,30=1/3;
 99//99;
 -------------------------------------------------
 Generated by MDDatasetMaker (Author: Jinzhe Zeng)
 -------------------------------------------------
 Symbolic Z-matrix:
 Charge =  0 Multiplicity = 1
 C                     9.64211   28.1255   11.8133 
 H                     9.10648   28.7702   11.2116 
 H                     10.0129   28.60336   12.7525 
 H                     10.6071   27.8198   11.2689 
 H                     9.02603   27.283    12.1467 
 

 GradGradGradGradGradGradGradGradGradGradGradGradGradGradGradGradGradGrad
 Berny optimization.
 Initialization pass.
 Trust Radius=3.00D-01 FncErr=1.00D-07 GrdErr=1.00D-07 EigMax=2.50D+02 EigMin=1.00D-04
 Number of steps in this run=      2 maximum allowed number of steps=      2.
 GradGradGradGradGradGradGradGradGradGradGradGradGradGradGradGradGradGrad

                          Input orientation:                          
 ---------------------------------------------------------------------
 Center     Atomic      Atomic             Coordinates (Angstroms)
 Number     Number       Type             X           Y           Z
 ---------------------------------------------------------------------
      1          6           0        9.642110   28.125500   11.813300
      2          1           0        9.106480   28.770200   11.211600
      3          1           0       10.012900   28.603360   12.752500
      4          1           0       10.607100   27.819800   11.268900
      5          1           0        9.026030   27.283000   12.146700
 ---------------------------------------------------------------------
                    Distance matrix (angstroms):
                    1          2          3          4          5
     1  C    0.000000
     2  H    1.031785   0.000000
     3  H    1.117109   1.795496   0.000000
     4  H    1.149360   1.777190   1.779918   0.000000
     5  H    1.095681   1.758593   1.756205   1.886391   0.000000
 Stoichiometry    CH4
 Framework group  C1[X(CH4)]
 Deg. of freedom     9
 Full point group                 C1      NOp   1
 Largest Abelian subgroup         C1      NOp   1
 Largest concise Abelian subgroup C1      NOp   1
                         Standard orientation:                         
 ---------------------------------------------------------------------
 Center     Atomic      Atomic             Coordinates (Angstroms)
 Number     Number       Type             X           Y           Z
 ---------------------------------------------------------------------
      1          6           0       -0.008827   -0.020508   -0.002628
      2          1           0       -0.026664   -0.870388   -0.587407
      3          1           0       -0.048360    0.924955   -0.596319
      4          1           0        1.004941    0.042773    0.535238
      5          1           0       -0.876955    0.025711    0.664256
 ---------------------------------------------------------------------
 Rotational constants (GHZ):         164.5131712         156.1585933         147.3803459
 Standard basis: 3-21G* (6D, 7F)
 There are    17 symmetry adapted cartesian basis functions of A   symmetry.
 There are    17 symmetry adapted basis functions of A   symmetry.
    17 basis functions,    27 primitive gaussians,    17 cartesian basis functions
     5 alpha electrons        5 beta electrons
       nuclear repulsion energy        13.3522691436 Hartrees.
 NAtoms=    5 NActive=    5 NUniq=    5 SFac= 1.00D+00 NAtFMM=   60 NAOKFM=F Big=F
 Integral buffers will be    131072 words long.
 Raffenetti 2 integral format.
 Two-electron integral symmetry is turned on.
 One-electron integrals computed using PRISM.
 NBasis=    17 RedAO= T EigKep=  3.44D-02  NBF=    17
 NBsUse=    17 1.00D-06 EigRej= -1.00D+00 NBFU=    17
 ExpMin= 1.83D-01 ExpMax= 1.72D+02 ExpMxC= 1.72D+02 IAcc=3 IRadAn=         5 AccDes= 0.00D+00
 Harris functional with IExCor=  402 and IRadAn=       5 diagonalized for initial guess.
 HarFok:  IExCor=  402 AccDes= 0.00D+00 IRadAn=         5 IDoV= 1 UseB2=F ITyADJ=14
 ICtDFT=  3500011 ScaDFX=  1.000000  1.000000  1.000000  1.000000
 FoFCou: FMM=F IPFlag=           0 FMFlag=      100000 FMFlg1=           0
         NFxFlg=           0 DoJE=T BraDBF=F KetDBF=T FulRan=T
         wScrn=  0.000000 ICntrl=       500 IOpCl=  0 I1Cent=   200000004 NGrid=           0
         NMat0=    1 NMatS0=      1 NMatT0=    0 NMatD0=    1 NMtDS0=    0 NMtDT0=    0
 Petite list used in FoFCou.
 Keep R1 ints in memory in canonical form, NReq=55236554.
 Requested convergence on RMS density matrix=1.00D-08 within 128 cycles.
 Requested convergence on MAX density matrix=1.00D-06.
 Requested convergence on             energy=1.00D-06.
 No special actions if energy rises.
 Integral accuracy reduced to 1.0D-05 until final iterations.
 Initial convergence to 1.0D-05 achieved.  Increase integral accuracy.
 SCF Done:  E(RB3LYP) =  -40.2951472968     A.U. after    9 cycles
            NFock=  9  Conv=0.19D-08     -V/T= 2.0109

 **********************************************************************

            Population analysis using the SCF Density.

 **********************************************************************

 Orbital symmetries:
       Occupied  (A) (A) (A) (A) (A)
       Virtual   (A) (A) (A) (A) (A) (A) (A) (A) (A) (A) (A) (A)
 The electronic state is 1-A.
 Alpha  occ. eigenvalues --  -10.10207  -0.68969  -0.40621  -0.39111  -0.36682
 Alpha virt. eigenvalues --    0.14122   0.17401   0.19126   0.21192   0.68799
 Alpha virt. eigenvalues --    0.71079   0.73530   1.00164   1.02964   1.04823
 Alpha virt. eigenvalues --    1.10092   1.69286
          Condensed to atoms (all electrons):
               1          2          3          4          5
     1  C    5.292049   0.373361   0.361676   0.362913   0.368474
     2  H    0.373361   0.494685  -0.022840  -0.027275  -0.027316
     3  H    0.361676  -0.022840   0.537346  -0.029639  -0.030566
     4  H    0.362913  -0.027275  -0.029639   0.538101  -0.018045
     5  H    0.368474  -0.027316  -0.030566  -0.018045   0.516332
 Mulliken charges:
               1
     1  C   -0.758472
     2  H    0.209385
     3  H    0.184022
     4  H    0.173945
     5  H    0.191120
 Sum of Mulliken charges =   0.00000
 Mulliken charges with hydrogens summed into heavy atoms:
               1
     1  C    0.000000
 Electronic spatial extent (au):  <R**2>=             35.6849
 Charge=              0.0000 electrons
 Dipole moment (field-independent basis, Debye):
    X=             -0.0173    Y=              0.0196    Z=             -0.0453  Tot=              0.0523
 Quadrupole moment (field-independent basis, Debye-Ang):
   XX=             -8.1011   YY=             -8.1766   ZZ=             -8.5249
   XY=              0.0023   XZ=             -0.0644   YZ=              0.1111
 Traceless Quadrupole moment (field-independent basis, Debye-Ang):
   XX=              0.1665   YY=              0.0909   ZZ=             -0.2574
   XY=              0.0023   XZ=             -0.0644   YZ=              0.1111
 Octapole moment (field-independent basis, Debye-Ang**2):
  XXX=              0.1050  YYY=             -0.0786  ZZZ=             -0.1569  XYY=             -0.0805
  XXY=              0.0329  XXZ=              0.7195  XZZ=             -0.1493  YZZ=             -0.0403
  YYZ=             -0.7483  XYZ=              0.0107
 Hexadecapole moment (field-independent basis, Debye-Ang**3):
 XXXX=            -15.1631 YYYY=            -14.3729 ZZZZ=            -14.9928 XXXY=              0.0364
 XXXZ=             -0.0273 YYYX=             -0.0176 YYYZ=              0.1211 ZZZX=             -0.2250
 ZZZY=              0.2192 XXYY=             -5.4497 XXZZ=             -4.7399 YYZZ=             -4.6244
 XXYZ=              0.1214 YYXZ=             -0.0065 ZZXY=             -0.0058
 N-N= 1.335226914361D+01 E-N=-1.192394481991D+02  KE= 3.986218026884D+01
 Calling FoFJK, ICntrl=      2127 FMM=F ISym2X=0 I1Cent= 0 IOpClX= 0 NMat=1 NMatS=1 NMatT=0.
 ***** Axes restored to original set *****
 -------------------------------------------------------------------
 Center     Atomic                   Forces (Hartrees/Bohr)
 Number     Number              X              Y              Z
 -------------------------------------------------------------------
      1        6           0.059113942   -0.029843852    0.033221772
      2        1          -0.024769151    0.031445861   -0.023582770
      3        1          -0.008654397    0.002595802   -0.012304386
      4        1          -0.029859064   -0.000754885    0.011379956
      5        1           0.004168670   -0.003442926   -0.008714572
 -------------------------------------------------------------------
 Cartesian Forces:  Max     0.059113942 RMS     0.024504621

 GradGradGradGradGradGradGradGradGradGradGradGradGradGradGradGradGradGrad
 Berny optimization.
 Search for a local minimum.
 Step number   1 out of a maximum of    2
 All quantities printed in internal units (Hartrees-Bohrs-Radians)
 Second derivative matrix not updated -- first step.
 The second derivative matrix:
                          X1        Y1        Z1        X2        Y2
           X1           0.66384
           Y1          -0.01175   0.65856
           Z1           0.04006  -0.08288   0.65879
           X2          -0.18067   0.10750  -0.10190   0.16436
           Y2           0.10883  -0.21902   0.12771  -0.11570   0.20357
           Z2          -0.10098   0.12511  -0.19755   0.10814  -0.13436
           X3          -0.09527  -0.03421  -0.06996  -0.00196  -0.01205
           Y3          -0.03486  -0.12002  -0.08857   0.00470   0.02480
           Z3          -0.07043  -0.08752  -0.24591  -0.00162  -0.00786
           X4          -0.22263   0.05114   0.08908  -0.00687   0.00096
           Y4           0.04940  -0.08693  -0.02156   0.01545  -0.00106
           Z4           0.08750  -0.02206  -0.11764  -0.02085   0.00230
           X5          -0.16526  -0.11268   0.04272   0.02513   0.01795
           Y5          -0.11163  -0.23259   0.06530  -0.01196  -0.00830
           Z5           0.04384   0.06735  -0.09770   0.01622   0.01221
                          Z2        X3        Y3        Z3        X4
           Z2           0.18486
           X3          -0.01117   0.08254
           Y3           0.02239   0.03833   0.10305
           Z3          -0.00698   0.07369   0.09453   0.24140
           X4           0.00715   0.01790  -0.00323  -0.00542   0.21717
           Y4          -0.01489   0.01243  -0.00204  -0.00387  -0.05437
           Z4           0.02103   0.02475  -0.00458  -0.00744  -0.09439
           X5          -0.00314  -0.00321  -0.00495   0.00378  -0.00557
           Y5           0.00175  -0.00450  -0.00579   0.00472   0.00550
           Z5          -0.00137  -0.01730  -0.02377   0.01893   0.00359
                          Y4        Z4        X5        Y5        Z5
           Y4           0.06800
           Z4           0.02696   0.10519
           X5          -0.02291   0.00299   0.14891
           Y5           0.02204  -0.00263   0.12259   0.22464
           Z5           0.01335  -0.00113  -0.04636  -0.06914   0.08127
 ITU=  0
     Eigenvalues ---    0.10487   0.11064   0.12978   0.13870   0.14193
     Eigenvalues ---    0.33748   0.69796   0.78667   0.94145
 Angle between quadratic step and forces=  51.74 degrees.
 Linear search not attempted -- first point.
 B after Tr=     0.009612    0.000092    0.008258
         Rot=    1.000000   -0.000011   -0.000014    0.000012 Ang=   0.00 deg.
 Variable       Old X    -DE/DX   Delta X   Delta X   Delta X     New X
                                 (Linear)    (Quad)   (Total)
    X1       18.22095   0.05911   0.00000   0.03981   0.05135  18.27230
    Y1       53.14949  -0.02984   0.00000  -0.00285  -0.00368  53.14581
    Z1       22.32390   0.03322   0.00000   0.03058   0.03944  22.36335
    X2       17.20875  -0.02477   0.00000  -0.02872  -0.01718  17.19157
    Y2       54.36780   0.03145   0.00000   0.07147   0.07070  54.43850
    Z2       21.18685  -0.02358   0.00000  -0.01538  -0.00646  21.18039
    X3       18.92164  -0.00865   0.00000  -0.02601  -0.01439  18.90724
    Y3       54.05252   0.00260   0.00000   0.05681   0.05593  54.10845
    Z3       24.09873  -0.01230   0.00000  -0.01899  -0.01012  24.08861
    X4       20.04451  -0.02986   0.00000  -0.10725  -0.09575  19.94876
    Y4       52.57180  -0.00075   0.00000  -0.06956  -0.07040  52.50140
    Z4       21.29513   0.01138   0.00000   0.02945   0.03826  21.33339
    X5       17.05672   0.00417   0.00000   0.06446   0.07598  17.13270
    Y5       51.55740  -0.00344   0.00000  -0.05174  -0.05255  51.50485
    Z5       22.95394  -0.00871   0.00000  -0.06998  -0.06112  22.89281
         Item               Value     Threshold  Converged?
 Maximum Force            0.059114     0.000450     NO 
 RMS     Force            0.024505     0.000300     NO 
 Maximum Displacement     0.095755     0.001800     NO 
 RMS     Displacement     0.052178     0.001200     NO 
 Predicted change in Energy=-6.014556D-03
 GradGradGradGradGradGradGradGradGradGradGradGradGradGradGradGradGradGrad

 1\1\GINC-H11R13\Force\RB3LYP\3-21G*\C1H4\ACKGYDJ0BD\08-Jul-2026\0\\#fo
 rce b3lyp/3-21G* Geom=PrintInputOrient\\Generated by MDDatasetMaker (A
 uthor: Jinzhe Zeng)\\0,1\C,9.64211,28.1255,11.8133\H,9.10648,28.7702,1
 1.2116\H,10.0129,28.60336,12.7525\H,10.6071,27.8198,11.2689\H,9.02603,
 27.283,12.1467\\Version=EM64L-G16RevB.01\State=1-A\HF=-40.2951473\RMSD
 =1.897e-09\RMSF=2.450e-02\Dipole=-0.0042728,0.0150832,0.0133177\Quadru
 pole=0.1046883,-0.1382333,0.0335451,0.0411652,-0.0025201,-0.141685\PG=
 C01 [X(C1H4)]\\@


 FRICTION IS A DRAG,
 AND ENTROPY AIN'T WHAT IT USED TO BE.
 Job cpu time:       0 days  0 hours  2 minutes 23.1 seconds.
 Elapsed time:       0 days  0 hours  0 minutes  2.9 seconds.
 File lengths (MBytes):  RWF=      6 Int=      0 D2E=      0 Chk=      1 Scr=      1
 Normal termination of Gaussian 16 at Wed Jul  8 17:31:45 2026.
