 Entering Gaussian System, Link 0=g16
 Input=data_C1111_02.gjf
 Output=data_C1111_02.log
 Initial command:
 /work/home/ackgydj0bd/apprepo/gaussian/16b.01-none_v1.3/app/g16/l1.exe "/work/home/ackgydj0bd/apprepo/gaussian/16b.01-none_v1.3/app/g16/scratch/Gau-25962.inp" -scrdir="/work/home/ackgydj0bd/apprepo/gaussian/16b.01-none_v1.3/app/g16/scratch/"
 Entering Link 1 = /work/home/ackgydj0bd/apprepo/gaussian/16b.01-none_v1.3/app/g16/l1.exe PID=     25963.
  
 Copyright (c) 1988-2017, Gaussian, Inc.  All Rights Reserved.
  
 This is part of the Gaussian(R) 16 program.  It is based on
 the Gaussian(R) 09 system (copyright 2009, Gaussian, Inc.),
 the Gaussian(R) 03 system (copyright 2003, Gaussian, Inc.),
 the Gaussian(R) 98 system (copyright 1998, Gaussian, Inc.),
 the Gaussian(R) 94 system (copyright 1995, Gaussian, Inc.),
 the Gaussian 92(TM) system (copyright 1992, Gaussian, Inc.),
 the Gaussian 90(TM) system (copyright 1990, Gaussian, Inc.),
 the Gaussian 88(TM) system (copyright 1988, Gaussian, Inc.),
 the Gaussian 86(TM) system (copyright 1986, Carnegie Mellon
 University), and the Gaussian 82(TM) system (copyright 1983,
 Carnegie Mellon University). Gaussian is a federally registered
 trademark of Gaussian, Inc.
  
 This software contains proprietary and confidential information,
 including trade secrets, belonging to Gaussian, Inc.
  
 This software is provided under written license and may be
 used, copied, transmitted, or stored only in accord with that
 written license.
  
 The following legend is applicable only to US Government
 contracts under FAR:
  
                    RESTRICTED RIGHTS LEGEND
  
 Use, reproduction and disclosure by the US Government is
 subject to restrictions as set forth in subparagraphs (a)
 and (c) of the Commercial Computer Software - Restricted
 Rights clause in FAR 52.227-19.
  
 Gaussian, Inc.
 340 Quinnipiac St., Bldg. 40, Wallingford CT 06492
  
  
 ---------------------------------------------------------------
 Warning -- This program may not be used in any manner that
 competes with the business of Gaussian, Inc. or will provide
 assistance to any competitor of Gaussian, Inc.  The licensee
 of this program is prohibited from giving any competitor of
 Gaussian, Inc. access to this program.  By using this program,
 the user acknowledges that Gaussian, Inc. is engaged in the
 business of creating and licensing software in the field of
 computational chemistry and represents and warrants to the
 licensee that it is not a competitor of Gaussian, Inc. and that
 it will not use this program in any manner prohibited above.
 ---------------------------------------------------------------
  

 Cite this work as:
 Gaussian 16, Revision B.01,
 M. J. Frisch, G. W. Trucks, H. B. Schlegel, G. E. Scuseria, 
 M. A. Robb, J. R. Cheeseman, G. Scalmani, V. Barone, 
 G. A. Petersson, H. Nakatsuji, X. Li, M. Caricato, A. V. Marenich, 
 J. Bloino, B. G. Janesko, R. Gomperts, B. Mennucci, H. P. Hratchian, 
 J. V. Ortiz, A. F. Izmaylov, J. L. Sonnenberg, D. Williams-Young, 
 F. Ding, F. Lipparini, F. Egidi, J. Goings, B. Peng, A. Petrone, 
 T. Henderson, D. Ranasinghe, V. G. Zakrzewski, J. Gao, N. Rega, 
 G. Zheng, W. Liang, M. Hada, M. Ehara, K. Toyota, R. Fukuda, 
 J. Hasegawa, M. Ishida, T. Nakajima, Y. Honda, O. Kitao, H. Nakai, 
 T. Vreven, K. Throssell, J. A. Montgomery, Jr., J. E. Peralta, 
 F. Ogliaro, M. J. Bearpark, J. J. Heyd, E. N. Brothers, K. N. Kudin, 
 V. N. Staroverov, T. A. Keith, R. Kobayashi, J. Normand, 
 K. Raghavachari, A. P. Rendell, J. C. Burant, S. S. Iyengar, 
 J. Tomasi, M. Cossi, J. M. Millam, M. Klene, C. Adamo, R. Cammi, 
 J. W. Ochterski, R. L. Martin, K. Morokuma, O. Farkas, 
 J. B. Foresman, and D. J. Fox, Gaussian, Inc., Wallingford CT, 2016.
 
 ******************************************
 Gaussian 16:  EM64L-G16RevB.01 20-Dec-2017
                 8-Jul-2026 
 ******************************************
 %nproc=64
 Will use up to   64 processors via shared memory.
 %mem=128GB
 -----------------------------------------
 #force b3lyp/3-21G* Geom=PrintInputOrient
 -----------------------------------------
 1/10=7,30=1,38=1/1,3;
 2/9=2000,12=2,17=6,18=5,40=1/2;
 3/5=5,7=1,11=2,25=1,30=1,71=1,74=-5/1,2,3;
 4//1;
 5/5=2,38=5/2;
 6/7=2,8=2,9=2,10=2,28=1/1;
 7/29=1/1,2,3,16;
 1/10=7,30=1/3;
 99//99;
 -------------------------------------------------
 Generated by MDDatasetMaker (Author: Jinzhe Zeng)
 -------------------------------------------------
 Symbolic Z-matrix:
 Charge =  0 Multiplicity = 1
 C                     26.787    24.064    4.55909 
 H                     25.8424   23.7315   4.73704 
 H                     27.1376   24.6158   5.44725 
 H                     26.9945   24.6893   3.69435 
 H                     27.2942   23.099    4.41174 
 C                     24.2383   23.8784   4.52936 
 H                     24.8802   24.5253   3.92773 
 H                     24.4778   22.8344   4.37809 
 H                     23.1399   23.9049   4.33924 
 H                     24.5057   24.1107   5.60077 
 

 GradGradGradGradGradGradGradGradGradGradGradGradGradGradGradGradGradGrad
 Berny optimization.
 Initialization pass.
 Trust Radius=3.00D-01 FncErr=1.00D-07 GrdErr=1.00D-07 EigMax=2.50D+02 EigMin=1.00D-04
 Number of steps in this run=      2 maximum allowed number of steps=      2.
 GradGradGradGradGradGradGradGradGradGradGradGradGradGradGradGradGradGrad

                          Input orientation:                          
 ---------------------------------------------------------------------
 Center     Atomic      Atomic             Coordinates (Angstroms)
 Number     Number       Type             X           Y           Z
 ---------------------------------------------------------------------
      1          6           0       26.787000   24.064000    4.559090
      2          1           0       25.842400   23.731500    4.737040
      3          1           0       27.137600   24.615800    5.447250
      4          1           0       26.994500   24.689300    3.694350
      5          1           0       27.294200   23.099000    4.411740
      6          6           0       24.238300   23.878400    4.529360
      7          1           0       24.880200   24.525300    3.927730
      8          1           0       24.477800   22.834400    4.378090
      9          1           0       23.139900   23.904900    4.339240
     10          1           0       24.505700   24.110700    5.600770
 ---------------------------------------------------------------------
                    Distance matrix (angstroms):
                    1          2          3          4          5
     1  C    0.000000
     2  H    1.017100   0.000000
     3  H    1.102829   1.721606   0.000000
     4  H    1.087121   1.825354   1.760267   0.000000
     5  H    1.100086   1.616663   1.843227   1.770176   0.000000
     6  C    2.555622   1.624145   3.129253   2.991896   3.155919
     7  H    2.060898   1.486920   2.722680   2.133454   2.845346
     8  H    2.622419   1.672055   3.375059   3.200302   2.829002
     9  H    3.657183   2.737119   4.208880   3.986114   4.232368
    10  H    2.508308   1.636028   2.684323   3.187999   3.195788
                    6          7          8          9         10
     6  C    0.000000
     7  H    1.092005   0.000000
     8  H    1.081748   1.795520   0.000000
     9  H    1.115047   1.892850   1.713901   0.000000
    10  H    1.128444   1.763861   1.767673   1.870621   0.000000
 Stoichiometry    C2H8
 Framework group  C1[X(C2H8)]
 Deg. of freedom    24
 Full point group                 C1      NOp   1
 Largest Abelian subgroup         C1      NOp   1
 Largest concise Abelian subgroup C1      NOp   1
                         Standard orientation:                         
 ---------------------------------------------------------------------
 Center     Atomic      Atomic             Coordinates (Angstroms)
 Number     Number       Type             X           Y           Z
 ---------------------------------------------------------------------
      1          6           0        1.270210    0.002695    0.003125
      2          1           0        0.302365    0.155841   -0.269483
      3          1           0        1.672778   -0.835980   -0.589154
      4          1           0        1.522986   -0.192252    1.042322
      5          1           0        1.693258    0.979856   -0.273235
      6          6           0       -1.285221   -0.020033    0.024603
      7          1           0       -0.595770   -0.308265    0.820878
      8          1           0       -1.135593    1.009086   -0.273229
      9          1           0       -2.378914   -0.053475    0.239189
     10          1           0       -0.991044   -0.650785   -0.863653
 ---------------------------------------------------------------------
 Rotational constants (GHZ):          78.3248487           8.5895300           8.5711019
 Standard basis: 3-21G* (6D, 7F)
 There are    34 symmetry adapted cartesian basis functions of A   symmetry.
 There are    34 symmetry adapted basis functions of A   symmetry.
    34 basis functions,    54 primitive gaussians,    34 cartesian basis functions
    10 alpha electrons       10 beta electrons
       nuclear repulsion energy        47.5033464196 Hartrees.
 NAtoms=   10 NActive=   10 NUniq=   10 SFac= 1.00D+00 NAtFMM=   60 NAOKFM=F Big=F
 Integral buffers will be    131072 words long.
 Raffenetti 2 integral format.
 Two-electron integral symmetry is turned on.
 One-electron integrals computed using PRISM.
 NBasis=    34 RedAO= T EigKep=  1.17D-02  NBF=    34
 NBsUse=    34 1.00D-06 EigRej= -1.00D+00 NBFU=    34
 ExpMin= 1.83D-01 ExpMax= 1.72D+02 ExpMxC= 1.72D+02 IAcc=3 IRadAn=         5 AccDes= 0.00D+00
 Harris functional with IExCor=  402 and IRadAn=       5 diagonalized for initial guess.
 HarFok:  IExCor=  402 AccDes= 0.00D+00 IRadAn=         5 IDoV= 1 UseB2=F ITyADJ=14
 ICtDFT=  3500011 ScaDFX=  1.000000  1.000000  1.000000  1.000000
 FoFCou: FMM=F IPFlag=           0 FMFlag=      100000 FMFlg1=           0
         NFxFlg=           0 DoJE=T BraDBF=F KetDBF=T FulRan=T
         wScrn=  0.000000 ICntrl=       500 IOpCl=  0 I1Cent=   200000004 NGrid=           0
         NMat0=    1 NMatS0=      1 NMatT0=    0 NMatD0=    1 NMtDS0=    0 NMtDT0=    0
 Petite list used in FoFCou.
 Keep R1 ints in memory in canonical form, NReq=55475944.
 Requested convergence on RMS density matrix=1.00D-08 within 128 cycles.
 Requested convergence on MAX density matrix=1.00D-06.
 Requested convergence on             energy=1.00D-06.
 No special actions if energy rises.
 Integral accuracy reduced to 1.0D-05 until final iterations.
 Initial convergence to 1.0D-05 achieved.  Increase integral accuracy.
 SCF Done:  E(RB3LYP) =  -80.5327603864     A.U. after   10 cycles
            NFock= 10  Conv=0.56D-08     -V/T= 2.0056

 **********************************************************************

            Population analysis using the SCF Density.

 **********************************************************************

 Orbital symmetries:
       Occupied  (A) (A) (A) (A) (A) (A) (A) (A) (A) (A)
       Virtual   (A) (A) (A) (A) (A) (A) (A) (A) (A) (A) (A) (A)
                 (A) (A) (A) (A) (A) (A) (A) (A) (A) (A) (A) (A)
 The electronic state is 1-A.
 Alpha  occ. eigenvalues --  -10.10471 -10.07537  -0.74048  -0.66655  -0.45609
 Alpha  occ. eigenvalues --   -0.41537  -0.39980  -0.37737  -0.36873  -0.30895
 Alpha virt. eigenvalues --    0.12043   0.16417   0.17717   0.18303   0.18702
 Alpha virt. eigenvalues --    0.19499   0.20731   0.36369   0.65736   0.68422
 Alpha virt. eigenvalues --    0.72949   0.76141   0.79254   0.96141   1.00502
 Alpha virt. eigenvalues --    1.02245   1.03200   1.05687   1.07874   1.11674
 Alpha virt. eigenvalues --    1.22514   1.26145   1.83088   1.87673
          Condensed to atoms (all electrons):
               1          2          3          4          5          6
     1  C    5.466505   0.377939   0.363001   0.379022   0.349909  -0.082233
     2  H    0.377939   0.532041  -0.034502  -0.026529  -0.043110  -0.053571
     3  H    0.363001  -0.034502   0.533729  -0.029296  -0.014479   0.002677
     4  H    0.379022  -0.026529  -0.029296   0.523316  -0.026527  -0.001517
     5  H    0.349909  -0.043110  -0.014479  -0.026527   0.553574   0.003659
     6  C   -0.082233  -0.053571   0.002677  -0.001517   0.003659   5.473693
     7  H   -0.019796  -0.041345   0.001056   0.001834   0.001231   0.393493
     8  H   -0.013191   0.001506   0.000430   0.000308   0.000582   0.362522
     9  H    0.004154   0.003358  -0.000087  -0.000040  -0.000115   0.348676
    10  H   -0.011205  -0.007054   0.000295   0.000492   0.000501   0.365512
               7          8          9         10
     1  C   -0.019796  -0.013191   0.004154  -0.011205
     2  H   -0.041345   0.001506   0.003358  -0.007054
     3  H    0.001056   0.000430  -0.000087   0.000295
     4  H    0.001834   0.000308  -0.000040   0.000492
     5  H    0.001231   0.000582  -0.000115   0.000501
     6  C    0.393493   0.362522   0.348676   0.365512
     7  H    0.500944  -0.026920  -0.015140  -0.033357
     8  H   -0.026920   0.535575  -0.035696  -0.033231
     9  H   -0.015140  -0.035696   0.549462  -0.017795
    10  H   -0.033357  -0.033231  -0.017795   0.540327
 Mulliken charges:
               1
     1  C   -0.814104
     2  H    0.291268
     3  H    0.177176
     4  H    0.178938
     5  H    0.174777
     6  C   -0.812911
     7  H    0.238001
     8  H    0.208115
     9  H    0.163225
    10  H    0.195515
 Sum of Mulliken charges =   0.00000
 Mulliken charges with hydrogens summed into heavy atoms:
               1
     1  C    0.008055
     6  C   -0.008055
 Electronic spatial extent (au):  <R**2>=            189.2266
 Charge=              0.0000 electrons
 Dipole moment (field-independent basis, Debye):
    X=             -0.1539    Y=              0.1348    Z=             -0.0948  Tot=              0.2255
 Quadrupole moment (field-independent basis, Debye-Ang):
   XX=            -18.0448   YY=            -16.4816   ZZ=            -16.5648
   XY=             -0.6007   XZ=              0.4813   YZ=             -0.0718
 Traceless Quadrupole moment (field-independent basis, Debye-Ang):
   XX=             -1.0144   YY=              0.5488   ZZ=              0.4656
   XY=             -0.6007   XZ=              0.4813   YZ=             -0.0718
 Octapole moment (field-independent basis, Debye-Ang**2):
  XXX=             -2.5824  YYY=              0.9504  ZZZ=              0.4511  XYY=              0.8004
  XXY=              0.3677  XXZ=              0.6632  XZZ=              0.8517  YZZ=             -0.6295
  YYZ=             -0.8484  XYZ=              0.0115
 Hexadecapole moment (field-independent basis, Debye-Ang**3):
 XXXX=           -200.0746 YYYY=            -29.7008 ZZZZ=            -29.3860 XXXY=             -2.5204
 XXXZ=              0.1555 YYYX=             -0.8572 YYYZ=             -0.1289 ZZZX=              1.8055
 ZZZY=              0.0299 XXYY=            -37.7530 XXZZ=            -38.5224 YYZZ=             -9.8591
 XXYZ=             -0.0238 YYXZ=             -0.2705 ZZXY=             -0.5063
 N-N= 4.750334641959D+01 E-N=-2.802725331578D+02  KE= 8.008263031159D+01
 Calling FoFJK, ICntrl=      2127 FMM=F ISym2X=0 I1Cent= 0 IOpClX= 0 NMat=1 NMatS=1 NMatT=0.
 ***** Axes restored to original set *****
 -------------------------------------------------------------------
 Center     Atomic                   Forces (Hartrees/Bohr)
 Number     Number              X              Y              Z
 -------------------------------------------------------------------
      1        6           0.086109315   -0.006504112    0.012352841
      2        1          -0.002527017   -0.002041642    0.005198898
      3        1           0.005777327   -0.008204900   -0.002143720
      4        1          -0.011494242    0.000590221   -0.006417570
      5        1           0.019137147    0.006787094    0.003922904
      6        6          -0.054898542    0.004712321    0.016523879
      7        1          -0.035269669    0.001567113   -0.011118308
      8        1           0.004875240   -0.008882084   -0.006783102
      9        1           0.009835400    0.012507552    0.004281605
     10        1          -0.021544960   -0.000531562   -0.015817426
 -------------------------------------------------------------------
 Cartesian Forces:  Max     0.086109315 RMS     0.021731600

 GradGradGradGradGradGradGradGradGradGradGradGradGradGradGradGradGradGrad
 Berny optimization.
 Search for a local minimum.
 Step number   1 out of a maximum of    2
 All quantities printed in internal units (Hartrees-Bohrs-Radians)
 Second derivative matrix not updated -- first step.
 ITU=  0
     Eigenvalues ---    0.00000   0.00000   0.00000   0.00000   0.00000
     Eigenvalues ---    0.00001   0.10486   0.10819   0.11327   0.12092
     Eigenvalues ---    0.12273   0.13190   0.13823   0.13958   0.14174
     Eigenvalues ---    0.15794   0.33083   0.36199   0.74191   0.77300
     Eigenvalues ---    0.81594   0.82380   0.88721   1.08479
 Eigenvalue     1 is   2.22D-16 Eigenvector:
                          X10       X8        X5        X4        X2
   1                   -0.31537  -0.31537   0.31537   0.31537   0.31537
                          X1        X6        X3        X9        X7
   1                    0.31537  -0.31537   0.31537  -0.31537  -0.31537
 Eigenvalue     2 is   1.81D-07 Eigenvector:
                          X7        Z9        X10       Z8        Y7
   1                    0.44942  -0.38414  -0.36363   0.29056  -0.27671
                          Z7        Y9        X8        Z5        Z10
   1                    0.27393   0.25261  -0.20900  -0.17869   0.16292
 Eigenvalue     3 is   1.10D-06 Eigenvector:
                          X4        Z2        Y2        X5        X3
   1                    0.58281  -0.48224   0.38285  -0.25009  -0.18671
                          Z7        X2        Z5        Y10       Z10
   1                    0.18324  -0.17820   0.16620  -0.12744   0.12560
 Eigenvalue     4 is   2.21D-06 Eigenvector:
                          X10       Z7        X3        Z2        Y7
   1                    0.34618  -0.33145  -0.31050  -0.30178  -0.29362
                          Z9        X8        Y4        Z3        Z4
   1                    0.28257  -0.27347   0.21620   0.20981   0.18722
 Eigenvalue     5 is   3.68D-06 Eigenvector:
                          X8        Y2        Y10       Y9        Y7
   1                    0.38657  -0.34357   0.33791  -0.31643   0.27001
                          X3        Z2        X5        X10       Z8
   1                   -0.26698  -0.26011   0.24152  -0.23571   0.21108
 Eigenvalue     6 is   1.29D-05 Eigenvector:
                          X3        X5        Z5        Y3        Y2
   1                    0.35650  -0.34347  -0.33698  -0.32248   0.30673
                          Y10       Z8        Y4        Y9        Z7
   1                    0.29570   0.28030   0.22381  -0.21362  -0.19427
 Quadratic step=6.564D+02 exceeds max=3.000D-01 adjusted using Lamda=-2.473D-01.
 Angle between NR and scaled steps=  27.81 degrees.
 Angle between quadratic step and forces=  35.07 degrees.
 Linear search not attempted -- first point.
 B after Tr=    -0.049370    0.057661   -0.011435
         Rot=    1.000000   -0.000037    0.000117    0.000613 Ang=  -0.07 deg.
 Variable       Old X    -DE/DX   Delta X   Delta X   Delta X     New X
                                 (Linear)    (Quad)   (Total)
    X1       50.62009   0.08611   0.00000   0.14150   0.14582  50.76592
    Y1       45.47437  -0.00650   0.00000  -0.01267  -0.01794  45.45643
    Z1        8.61543   0.01235   0.00000   0.01533   0.01916   8.63459
    X2       48.83506  -0.00253   0.00000   0.08212   0.08561  48.92067
    Y2       44.84604  -0.00204   0.00000   0.00194  -0.00109  44.84495
    Z2        8.95171   0.00520   0.00000   0.01557   0.01891   8.97062
    X3       51.28263   0.00578   0.00000   0.05460   0.05982  51.34245
    Y3       46.51712  -0.00820   0.00000  -0.00680  -0.01290  46.50422
    Z3       10.29381  -0.00214   0.00000   0.00976   0.01380  10.30761
    X4       51.01221  -0.01149   0.00000  -0.01238  -0.00619  51.00602
    Y4       46.65602   0.00059   0.00000   0.00382  -0.00161  46.65440
    Z4        6.98131  -0.00642   0.00000  -0.01471  -0.01075   6.97056
    X5       51.57856   0.01914   0.00000   0.10467   0.10685  51.68541
    Y5       43.65078   0.00679   0.00000   0.00286  -0.00351  43.64727
    Z5        8.33698   0.00392   0.00000   0.00702   0.01092   8.34790
    X6       45.80375  -0.05490   0.00000  -0.11342  -0.10950  45.69425
    Y6       45.12364   0.00471   0.00000  -0.00231  -0.00135  45.12228
    Z6        8.55925   0.01652   0.00000   0.00687   0.00948   8.56873
    X7       47.01676  -0.03527   0.00000  -0.14819  -0.14248  46.87428
    Y7       46.34610   0.00157   0.00000   0.00730   0.00690  46.35300
    Z7        7.42233  -0.01112   0.00000  -0.03153  -0.02855   7.39378
    X8       46.25634   0.00488   0.00000  -0.01581  -0.01423  46.24210
    Y8       43.15076  -0.00888   0.00000  -0.00449  -0.00418  43.14658
    Z8        8.27339  -0.00678   0.00000  -0.01978  -0.01718   8.25621
    X9       43.72807   0.00984   0.00000  -0.04798  -0.04388  43.68419
    Y9       45.17371   0.01251   0.00000   0.02593   0.02938  45.20309
    Z9        8.19998   0.00428   0.00000   0.01109   0.01324   8.21321
   X10       46.30906  -0.02154   0.00000  -0.08582  -0.08181  46.22725
   Y10       45.56262  -0.00053   0.00000   0.00613   0.00629  45.56891
   Z10       10.58392  -0.01582   0.00000  -0.03180  -0.02903  10.55489
         Item               Value     Threshold  Converged?
 Maximum Force            0.086109     0.000450     NO 
 RMS     Force            0.021732     0.000300     NO 
 Maximum Displacement     0.145824     0.001800     NO 
 RMS     Displacement     0.054644     0.001200     NO 
 Predicted change in Energy=-2.575163D-02
 GradGradGradGradGradGradGradGradGradGradGradGradGradGradGradGradGradGrad

 1\1\GINC-H11R13\Force\RB3LYP\3-21G*\C2H8\ACKGYDJ0BD\08-Jul-2026\0\\#fo
 rce b3lyp/3-21G* Geom=PrintInputOrient\\Generated by MDDatasetMaker (A
 uthor: Jinzhe Zeng)\\0,1\C,26.787,24.064,4.55909\H,25.8424,23.7315,4.7
 3704\H,27.1376,24.6158,5.44725\H,26.9945,24.6893,3.69435\H,27.2942,23.
 099,4.41174\C,24.2383,23.8784,4.52936\H,24.8802,24.5253,3.92773\H,24.4
 778,22.8344,4.37809\H,23.1399,23.9049,4.33924\H,24.5057,24.1107,5.6007
 7\\Version=EM64L-G16RevB.01\State=1-A\HF=-80.5327604\RMSD=5.556e-09\RM
 SF=2.173e-02\Dipole=-0.0550505,-0.0685713,0.0116699\Quadrupole=-0.8365
 288,0.5221783,0.3143505,0.4467808,-0.1491146,-0.0204809\PG=C01 [X(C2H8
 )]\\@


 A HARD FALL SHOULD MEAN A HIGH BOUNCE 
 IF ONE IS MADE OF THE RIGHT MATERIAL.

                -- THE CHEMIST ANALYST, MARCH 1950
 Job cpu time:       0 days  0 hours  2 minutes 46.1 seconds.
 Elapsed time:       0 days  0 hours  0 minutes  3.3 seconds.
 File lengths (MBytes):  RWF=      6 Int=      0 D2E=      0 Chk=      1 Scr=      1
 Normal termination of Gaussian 16 at Wed Jul  8 17:31:31 2026.
