 Entering Gaussian System, Link 0=g16
 Input=data_H1_00.gjf
 Output=data_H1_00.log
 Initial command:
 /work/home/ackgydj0bd/apprepo/gaussian/16b.01-none_v1.3/app/g16/l1.exe "/work/home/ackgydj0bd/apprepo/gaussian/16b.01-none_v1.3/app/g16/scratch/Gau-34195.inp" -scrdir="/work/home/ackgydj0bd/apprepo/gaussian/16b.01-none_v1.3/app/g16/scratch/"
 Entering Link 1 = /work/home/ackgydj0bd/apprepo/gaussian/16b.01-none_v1.3/app/g16/l1.exe PID=     34201.
  
 Copyright (c) 1988-2017, Gaussian, Inc.  All Rights Reserved.
  
 This is part of the Gaussian(R) 16 program.  It is based on
 the Gaussian(R) 09 system (copyright 2009, Gaussian, Inc.),
 the Gaussian(R) 03 system (copyright 2003, Gaussian, Inc.),
 the Gaussian(R) 98 system (copyright 1998, Gaussian, Inc.),
 the Gaussian(R) 94 system (copyright 1995, Gaussian, Inc.),
 the Gaussian 92(TM) system (copyright 1992, Gaussian, Inc.),
 the Gaussian 90(TM) system (copyright 1990, Gaussian, Inc.),
 the Gaussian 88(TM) system (copyright 1988, Gaussian, Inc.),
 the Gaussian 86(TM) system (copyright 1986, Carnegie Mellon
 University), and the Gaussian 82(TM) system (copyright 1983,
 Carnegie Mellon University). Gaussian is a federally registered
 trademark of Gaussian, Inc.
  
 This software contains proprietary and confidential information,
 including trade secrets, belonging to Gaussian, Inc.
  
 This software is provided under written license and may be
 used, copied, transmitted, or stored only in accord with that
 written license.
  
 The following legend is applicable only to US Government
 contracts under FAR:
  
                    RESTRICTED RIGHTS LEGEND
  
 Use, reproduction and disclosure by the US Government is
 subject to restrictions as set forth in subparagraphs (a)
 and (c) of the Commercial Computer Software - Restricted
 Rights clause in FAR 52.227-19.
  
 Gaussian, Inc.
 340 Quinnipiac St., Bldg. 40, Wallingford CT 06492
  
  
 ---------------------------------------------------------------
 Warning -- This program may not be used in any manner that
 competes with the business of Gaussian, Inc. or will provide
 assistance to any competitor of Gaussian, Inc.  The licensee
 of this program is prohibited from giving any competitor of
 Gaussian, Inc. access to this program.  By using this program,
 the user acknowledges that Gaussian, Inc. is engaged in the
 business of creating and licensing software in the field of
 computational chemistry and represents and warrants to the
 licensee that it is not a competitor of Gaussian, Inc. and that
 it will not use this program in any manner prohibited above.
 ---------------------------------------------------------------
  

 Cite this work as:
 Gaussian 16, Revision B.01,
 M. J. Frisch, G. W. Trucks, H. B. Schlegel, G. E. Scuseria, 
 M. A. Robb, J. R. Cheeseman, G. Scalmani, V. Barone, 
 G. A. Petersson, H. Nakatsuji, X. Li, M. Caricato, A. V. Marenich, 
 J. Bloino, B. G. Janesko, R. Gomperts, B. Mennucci, H. P. Hratchian, 
 J. V. Ortiz, A. F. Izmaylov, J. L. Sonnenberg, D. Williams-Young, 
 F. Ding, F. Lipparini, F. Egidi, J. Goings, B. Peng, A. Petrone, 
 T. Henderson, D. Ranasinghe, V. G. Zakrzewski, J. Gao, N. Rega, 
 G. Zheng, W. Liang, M. Hada, M. Ehara, K. Toyota, R. Fukuda, 
 J. Hasegawa, M. Ishida, T. Nakajima, Y. Honda, O. Kitao, H. Nakai, 
 T. Vreven, K. Throssell, J. A. Montgomery, Jr., J. E. Peralta, 
 F. Ogliaro, M. J. Bearpark, J. J. Heyd, E. N. Brothers, K. N. Kudin, 
 V. N. Staroverov, T. A. Keith, R. Kobayashi, J. Normand, 
 K. Raghavachari, A. P. Rendell, J. C. Burant, S. S. Iyengar, 
 J. Tomasi, M. Cossi, J. M. Millam, M. Klene, C. Adamo, R. Cammi, 
 J. W. Ochterski, R. L. Martin, K. Morokuma, O. Farkas, 
 J. B. Foresman, and D. J. Fox, Gaussian, Inc., Wallingford CT, 2016.
 
 ******************************************
 Gaussian 16:  EM64L-G16RevB.01 20-Dec-2017
                 8-Jul-2026 
 ******************************************
 %nproc=64
 Will use up to   64 processors via shared memory.
 %mem=128GB
 -----------------------------------------
 #force b3lyp/3-21G* Geom=PrintInputOrient
 -----------------------------------------
 1/10=7,30=1,38=1/1,3;
 2/9=2000,12=2,17=6,18=5,40=1/2;
 3/5=5,7=1,11=2,25=1,30=1,71=1,74=-5/1,2,3;
 4//1;
 5/5=2,38=5/2;
 6/7=2,8=2,9=2,10=2,28=1/1;
 7/29=1/1,2,3,16;
 1/10=7,30=1/3;
 99//99;
 -------------------------------------------------
 Generated by MDDatasetMaker (Author: Jinzhe Zeng)
 -------------------------------------------------
 Symbolic Z-matrix:
 Charge =  0 Multiplicity = 1
 C                     20.2567   4.15547   16.071 
 H                     20.948    5.02107   15.8537 
 H                     20.4543   3.56056   16.9903 
 H                     19.2105   4.59712   16.2324 
 H                     20.2191   3.50011   15.2539 
 

 GradGradGradGradGradGradGradGradGradGradGradGradGradGradGradGradGradGrad
 Berny optimization.
 Initialization pass.
 Trust Radius=3.00D-01 FncErr=1.00D-07 GrdErr=1.00D-07 EigMax=2.50D+02 EigMin=1.00D-04
 Number of steps in this run=      2 maximum allowed number of steps=      2.
 GradGradGradGradGradGradGradGradGradGradGradGradGradGradGradGradGradGrad

                          Input orientation:                          
 ---------------------------------------------------------------------
 Center     Atomic      Atomic             Coordinates (Angstroms)
 Number     Number       Type             X           Y           Z
 ---------------------------------------------------------------------
      1          6           0       20.256700    4.155470   16.071000
      2          1           0       20.948000    5.021070   15.853700
      3          1           0       20.454300    3.560560   16.990300
      4          1           0       19.210500    4.597120   16.232400
      5          1           0       20.219100    3.500110   15.253900
 ---------------------------------------------------------------------
                    Distance matrix (angstroms):
                    1          2          3          4          5
     1  C    0.000000
     2  H    1.128884   0.000000
     3  H    1.112689   1.915382   0.000000
     4  H    1.147013   1.828128   1.787710   0.000000
     5  H    1.048124   1.790077   1.753299   1.782741   0.000000
 Stoichiometry    CH4
 Framework group  C1[X(CH4)]
 Deg. of freedom     9
 Full point group                 C1      NOp   1
 Largest Abelian subgroup         C1      NOp   1
 Largest concise Abelian subgroup C1      NOp   1
                         Standard orientation:                         
 ---------------------------------------------------------------------
 Center     Atomic      Atomic             Coordinates (Angstroms)
 Number     Number       Type             X           Y           Z
 ---------------------------------------------------------------------
      1          6           0       -0.005743   -0.019531   -0.004397
      2          1           0       -1.039179   -0.104005   -0.450773
      3          1           0        0.856961   -0.278989   -0.657467
      4          1           0        0.153920    1.085293    0.259254
      5          1           0        0.062755   -0.585114    0.875368
 ---------------------------------------------------------------------
 Rotational constants (GHZ):         162.7200944         151.4350832         145.1472763
 Standard basis: 3-21G* (6D, 7F)
 There are    17 symmetry adapted cartesian basis functions of A   symmetry.
 There are    17 symmetry adapted basis functions of A   symmetry.
    17 basis functions,    27 primitive gaussians,    17 cartesian basis functions
     5 alpha electrons        5 beta electrons
       nuclear repulsion energy        13.2194904717 Hartrees.
 NAtoms=    5 NActive=    5 NUniq=    5 SFac= 1.00D+00 NAtFMM=   60 NAOKFM=F Big=F
 Integral buffers will be    131072 words long.
 Raffenetti 2 integral format.
 Two-electron integral symmetry is turned on.
 One-electron integrals computed using PRISM.
 NBasis=    17 RedAO= T EigKep=  3.53D-02  NBF=    17
 NBsUse=    17 1.00D-06 EigRej= -1.00D+00 NBFU=    17
 ExpMin= 1.83D-01 ExpMax= 1.72D+02 ExpMxC= 1.72D+02 IAcc=3 IRadAn=         5 AccDes= 0.00D+00
 Harris functional with IExCor=  402 and IRadAn=       5 diagonalized for initial guess.
 HarFok:  IExCor=  402 AccDes= 0.00D+00 IRadAn=         5 IDoV= 1 UseB2=F ITyADJ=14
 ICtDFT=  3500011 ScaDFX=  1.000000  1.000000  1.000000  1.000000
 FoFCou: FMM=F IPFlag=           0 FMFlag=      100000 FMFlg1=           0
         NFxFlg=           0 DoJE=T BraDBF=F KetDBF=T FulRan=T
         wScrn=  0.000000 ICntrl=       500 IOpCl=  0 I1Cent=   200000004 NGrid=           0
         NMat0=    1 NMatS0=      1 NMatT0=    0 NMatD0=    1 NMtDS0=    0 NMtDT0=    0
 Petite list used in FoFCou.
 Keep R1 ints in memory in canonical form, NReq=55236554.
 Requested convergence on RMS density matrix=1.00D-08 within 128 cycles.
 Requested convergence on MAX density matrix=1.00D-06.
 Requested convergence on             energy=1.00D-06.
 No special actions if energy rises.
 Integral accuracy reduced to 1.0D-05 until final iterations.
 Initial convergence to 1.0D-05 achieved.  Increase integral accuracy.
 SCF Done:  E(RB3LYP) =  -40.2957717631     A.U. after    9 cycles
            NFock=  9  Conv=0.28D-08     -V/T= 2.0123

 **********************************************************************

            Population analysis using the SCF Density.

 **********************************************************************

 Orbital symmetries:
       Occupied  (A) (A) (A) (A) (A)
       Virtual   (A) (A) (A) (A) (A) (A) (A) (A) (A) (A) (A) (A)
 The electronic state is 1-A.
 Alpha  occ. eigenvalues --  -10.10639  -0.68655  -0.39593  -0.39413  -0.36797
 Alpha virt. eigenvalues --    0.13820   0.17084   0.19137   0.20355   0.69021
 Alpha virt. eigenvalues --    0.72155   0.73902   0.99608   1.01597   1.04433
 Alpha virt. eigenvalues --    1.08569   1.68988
          Condensed to atoms (all electrons):
               1          2          3          4          5
     1  C    5.291822   0.368163   0.366388   0.358275   0.367028
     2  H    0.368163   0.517529  -0.016516  -0.025850  -0.026546
     3  H    0.366388  -0.016516   0.521416  -0.029151  -0.029711
     4  H    0.358275  -0.025850  -0.029151   0.548927  -0.026260
     5  H    0.367028  -0.026546  -0.029711  -0.026260   0.508666
 Mulliken charges:
               1
     1  C   -0.751676
     2  H    0.183220
     3  H    0.187574
     4  H    0.174058
     5  H    0.206823
 Sum of Mulliken charges =   0.00000
 Mulliken charges with hydrogens summed into heavy atoms:
               1
     1  C    0.000000
 Electronic spatial extent (au):  <R**2>=             36.0743
 Charge=              0.0000 electrons
 Dipole moment (field-independent basis, Debye):
    X=              0.0358    Y=              0.0075    Z=              0.0707  Tot=              0.0796
 Quadrupole moment (field-independent basis, Debye-Ang):
   XX=             -8.0168   YY=             -8.4100   ZZ=             -8.4514
   XY=             -0.0225   XZ=             -0.0046   YZ=             -0.0986
 Traceless Quadrupole moment (field-independent basis, Debye-Ang):
   XX=              0.2759   YY=             -0.1172   ZZ=             -0.1587
   XY=             -0.0225   XZ=             -0.0046   YZ=             -0.0986
 Octapole moment (field-independent basis, Debye-Ang**2):
  XXX=             -0.3220  YYY=              0.5695  ZZZ=              0.4700  XYY=              0.2172
  XXY=             -0.2596  XXZ=             -0.6835  XZZ=              0.1899  YZZ=             -0.4144
  YYZ=              0.4549  XYZ=              0.0829
 Hexadecapole moment (field-independent basis, Debye-Ang**3):
 XXXX=            -15.1107 YYYY=            -14.9156 ZZZZ=            -14.6263 XXXY=             -0.1120
 XXXZ=              0.0871 YYYX=              0.1379 YYYZ=             -0.0152 ZZZX=             -0.1216
 ZZZY=             -0.5016 XXYY=             -5.4941 XXZZ=             -4.8364 YYZZ=             -4.9432
 XXYZ=              0.1326 YYXZ=              0.0263 ZZXY=             -0.1197
 N-N= 1.321949047166D+01 E-N=-1.189365210510D+02  KE= 3.980507404777D+01
 Calling FoFJK, ICntrl=      2127 FMM=F ISym2X=0 I1Cent= 0 IOpClX= 0 NMat=1 NMatS=1 NMatT=0.
 ***** Axes restored to original set *****
 -------------------------------------------------------------------
 Center     Atomic                   Forces (Hartrees/Bohr)
 Number     Number              X              Y              Z
 -------------------------------------------------------------------
      1        6          -0.025162038    0.037533230    0.032885895
      2        1          -0.008058868   -0.021197803    0.011146459
      3        1           0.009137414    0.012442795   -0.009226078
      4        1           0.024410458   -0.009614111   -0.007105707
      5        1          -0.000326966   -0.019164111   -0.027700568
 -------------------------------------------------------------------
 Cartesian Forces:  Max     0.037533230 RMS     0.019931231

 GradGradGradGradGradGradGradGradGradGradGradGradGradGradGradGradGradGrad
 Berny optimization.
 Search for a local minimum.
 Step number   1 out of a maximum of    2
 All quantities printed in internal units (Hartrees-Bohrs-Radians)
 Second derivative matrix not updated -- first step.
 The second derivative matrix:
                          X1        Y1        Z1        X2        Y2
           X1           0.56884
           Y1           0.03072   0.67011
           Z1          -0.00858   0.01776   0.67814
           X2          -0.15771  -0.11036   0.02511   0.14702
           Y2          -0.11225  -0.20946   0.03472   0.12019   0.20150
           Z2           0.02716   0.03667  -0.08860  -0.02954  -0.03708
           X3          -0.07987   0.01595  -0.03669   0.01502  -0.00619
           Y3           0.01887  -0.14989   0.11186   0.01061  -0.00404
           Z3          -0.04009   0.10870  -0.24290   0.00364  -0.00129
           X4          -0.25426   0.07813   0.02960  -0.00966   0.00802
           Y4           0.07414  -0.10096  -0.01053  -0.02445   0.02025
           Z4           0.02721  -0.01014  -0.06906   0.00425  -0.00343
           X5          -0.07700  -0.01444  -0.00944   0.00534  -0.00978
           Y5          -0.01148  -0.20981  -0.15381   0.00401  -0.00825
           Z5          -0.00572  -0.15299  -0.27758  -0.00346   0.00707
                          Z2        X3        Y3        Z3        X4
           Z2           0.06510
           X3           0.02311   0.06215
           Y3           0.01765  -0.02329   0.13295
           Z3           0.00645   0.04103  -0.11809   0.23793
           X4           0.00121   0.00171  -0.00037  -0.00061   0.24972
           Y4           0.00291   0.01430  -0.00392  -0.00561  -0.08329
           Z4          -0.00011  -0.02803   0.00830   0.01140  -0.03163
           X5          -0.02195   0.00099  -0.00581  -0.00398   0.01250
           Y5          -0.02014  -0.00077   0.02491   0.01629  -0.00249
           Z5           0.01716   0.00057  -0.01971  -0.01288   0.00143
                          Y4        Z4        X5        Y5        Z5
           Y4           0.08840
           Z4           0.01109   0.05440
           X5           0.01930   0.02819   0.05817
           Y5          -0.00378  -0.00582   0.01074   0.19693
           Z5           0.00214   0.00337   0.00718   0.16348   0.26992
 ITU=  0
     Eigenvalues ---    0.10514   0.10856   0.12424   0.13583   0.13895
     Eigenvalues ---    0.32462   0.68045   0.78680   0.87351
 Angle between quadratic step and forces=  47.78 degrees.
 Linear search not attempted -- first point.
 B after Tr=    -0.012614    0.003692    0.002987
         Rot=    1.000000   -0.000001   -0.000002    0.000000 Ang=   0.00 deg.
 Variable       Old X    -DE/DX   Delta X   Delta X   Delta X     New X
                                 (Linear)    (Quad)   (Total)
    X1       38.27962  -0.02516   0.00000  -0.04305  -0.05552  38.22409
    Y1        7.85270   0.03753   0.00000   0.01259   0.01624   7.86894
    Z1       30.36979   0.03289   0.00000   0.00976   0.01258  30.38237
    X2       39.58598  -0.00806   0.00000  -0.01454  -0.02702  39.55896
    Y2        9.48845  -0.02120   0.00000  -0.08867  -0.08502   9.40343
    Z2       29.95915   0.01115   0.00000   0.09222   0.09504  30.05419
    X3       38.65303   0.00914   0.00000   0.08468   0.07221  38.72524
    Y3        6.72848   0.01244   0.00000   0.08872   0.09236   6.82085
    Z3       32.10701  -0.00923   0.00000  -0.01582  -0.01300  32.09402
    X4       36.30258   0.02441   0.00000   0.04491   0.03243  36.33501
    Y4        8.68730  -0.00961   0.00000  -0.00572  -0.00207   8.68523
    Z4       30.67479  -0.00711   0.00000  -0.03144  -0.02861  30.64618
    X5       38.20856  -0.00033   0.00000  -0.00961  -0.02209  38.18647
    Y5        6.61425  -0.01916   0.00000  -0.02517  -0.02152   6.59273
    Z5       28.82569  -0.02770   0.00000  -0.06885  -0.06602  28.75967
         Item               Value     Threshold  Converged?
 Maximum Force            0.037533     0.000450     NO 
 RMS     Force            0.019931     0.000300     NO 
 Maximum Displacement     0.095040     0.001800     NO 
 RMS     Displacement     0.052659     0.001200     NO 
 Predicted change in Energy=-5.345897D-03
 GradGradGradGradGradGradGradGradGradGradGradGradGradGradGradGradGradGrad

 1\1\GINC-H11R13\Force\RB3LYP\3-21G*\C1H4\ACKGYDJ0BD\08-Jul-2026\0\\#fo
 rce b3lyp/3-21G* Geom=PrintInputOrient\\Generated by MDDatasetMaker (A
 uthor: Jinzhe Zeng)\\0,1\C,20.2567,4.15547,16.071\H,20.948,5.02107,15.
 8537\H,20.4543,3.56056,16.9903\H,19.2105,4.59712,16.2324\H,20.2191,3.5
 0011,15.2539\\Version=EM64L-G16RevB.01\State=1-A\HF=-40.2957718\RMSD=2
 .781e-09\RMSF=1.993e-02\Dipole=-0.0218307,-0.0175432,-0.014012\Quadrup
 ole=-0.119955,0.1141314,0.0058236,0.0764394,-0.1003548,-0.0884529\PG=C
 01 [X(C1H4)]\\@


 REALITY IS FOR PEOPLE WHO CAN'T FACE SCIENCE FICTION.
 Job cpu time:       0 days  0 hours  2 minutes 33.0 seconds.
 Elapsed time:       0 days  0 hours  0 minutes  3.1 seconds.
 File lengths (MBytes):  RWF=      6 Int=      0 D2E=      0 Chk=      1 Scr=      1
 Normal termination of Gaussian 16 at Wed Jul  8 17:31:59 2026.
