 Entering Gaussian System, Link 0=g16
 Input=data_C1111_09.gjf
 Output=data_C1111_09.log
 Initial command:
 /work/home/ackgydj0bd/apprepo/gaussian/16b.01-none_v1.3/app/g16/l1.exe "/work/home/ackgydj0bd/apprepo/gaussian/16b.01-none_v1.3/app/g16/scratch/Gau-33147.inp" -scrdir="/work/home/ackgydj0bd/apprepo/gaussian/16b.01-none_v1.3/app/g16/scratch/"
 Entering Link 1 = /work/home/ackgydj0bd/apprepo/gaussian/16b.01-none_v1.3/app/g16/l1.exe PID=     33148.
  
 Copyright (c) 1988-2017, Gaussian, Inc.  All Rights Reserved.
  
 This is part of the Gaussian(R) 16 program.  It is based on
 the Gaussian(R) 09 system (copyright 2009, Gaussian, Inc.),
 the Gaussian(R) 03 system (copyright 2003, Gaussian, Inc.),
 the Gaussian(R) 98 system (copyright 1998, Gaussian, Inc.),
 the Gaussian(R) 94 system (copyright 1995, Gaussian, Inc.),
 the Gaussian 92(TM) system (copyright 1992, Gaussian, Inc.),
 the Gaussian 90(TM) system (copyright 1990, Gaussian, Inc.),
 the Gaussian 88(TM) system (copyright 1988, Gaussian, Inc.),
 the Gaussian 86(TM) system (copyright 1986, Carnegie Mellon
 University), and the Gaussian 82(TM) system (copyright 1983,
 Carnegie Mellon University). Gaussian is a federally registered
 trademark of Gaussian, Inc.
  
 This software contains proprietary and confidential information,
 including trade secrets, belonging to Gaussian, Inc.
  
 This software is provided under written license and may be
 used, copied, transmitted, or stored only in accord with that
 written license.
  
 The following legend is applicable only to US Government
 contracts under FAR:
  
                    RESTRICTED RIGHTS LEGEND
  
 Use, reproduction and disclosure by the US Government is
 subject to restrictions as set forth in subparagraphs (a)
 and (c) of the Commercial Computer Software - Restricted
 Rights clause in FAR 52.227-19.
  
 Gaussian, Inc.
 340 Quinnipiac St., Bldg. 40, Wallingford CT 06492
  
  
 ---------------------------------------------------------------
 Warning -- This program may not be used in any manner that
 competes with the business of Gaussian, Inc. or will provide
 assistance to any competitor of Gaussian, Inc.  The licensee
 of this program is prohibited from giving any competitor of
 Gaussian, Inc. access to this program.  By using this program,
 the user acknowledges that Gaussian, Inc. is engaged in the
 business of creating and licensing software in the field of
 computational chemistry and represents and warrants to the
 licensee that it is not a competitor of Gaussian, Inc. and that
 it will not use this program in any manner prohibited above.
 ---------------------------------------------------------------
  

 Cite this work as:
 Gaussian 16, Revision B.01,
 M. J. Frisch, G. W. Trucks, H. B. Schlegel, G. E. Scuseria, 
 M. A. Robb, J. R. Cheeseman, G. Scalmani, V. Barone, 
 G. A. Petersson, H. Nakatsuji, X. Li, M. Caricato, A. V. Marenich, 
 J. Bloino, B. G. Janesko, R. Gomperts, B. Mennucci, H. P. Hratchian, 
 J. V. Ortiz, A. F. Izmaylov, J. L. Sonnenberg, D. Williams-Young, 
 F. Ding, F. Lipparini, F. Egidi, J. Goings, B. Peng, A. Petrone, 
 T. Henderson, D. Ranasinghe, V. G. Zakrzewski, J. Gao, N. Rega, 
 G. Zheng, W. Liang, M. Hada, M. Ehara, K. Toyota, R. Fukuda, 
 J. Hasegawa, M. Ishida, T. Nakajima, Y. Honda, O. Kitao, H. Nakai, 
 T. Vreven, K. Throssell, J. A. Montgomery, Jr., J. E. Peralta, 
 F. Ogliaro, M. J. Bearpark, J. J. Heyd, E. N. Brothers, K. N. Kudin, 
 V. N. Staroverov, T. A. Keith, R. Kobayashi, J. Normand, 
 K. Raghavachari, A. P. Rendell, J. C. Burant, S. S. Iyengar, 
 J. Tomasi, M. Cossi, J. M. Millam, M. Klene, C. Adamo, R. Cammi, 
 J. W. Ochterski, R. L. Martin, K. Morokuma, O. Farkas, 
 J. B. Foresman, and D. J. Fox, Gaussian, Inc., Wallingford CT, 2016.
 
 ******************************************
 Gaussian 16:  EM64L-G16RevB.01 20-Dec-2017
                 8-Jul-2026 
 ******************************************
 %nproc=64
 Will use up to   64 processors via shared memory.
 %mem=128GB
 -----------------------------------------
 #force b3lyp/3-21G* Geom=PrintInputOrient
 -----------------------------------------
 1/10=7,30=1,38=1/1,3;
 2/9=2000,12=2,17=6,18=5,40=1/2;
 3/5=5,7=1,11=2,25=1,30=1,71=1,74=-5/1,2,3;
 4//1;
 5/5=2,38=5/2;
 6/7=2,8=2,9=2,10=2,28=1/1;
 7/29=1/1,2,3,16;
 1/10=7,30=1/3;
 99//99;
 -------------------------------------------------
 Generated by MDDatasetMaker (Author: Jinzhe Zeng)
 -------------------------------------------------
 Symbolic Z-matrix:
 Charge =  0 Multiplicity = 1
 C                     5.95706   4.07989   9.31284 
 H                     6.18156   5.01834   9.86157 
 H                     6.25989   3.11046   9.72732 
 H                     6.50536   4.07607   8.28173 
 H                     4.89472   3.98868   9.20422 
 

 GradGradGradGradGradGradGradGradGradGradGradGradGradGradGradGradGradGrad
 Berny optimization.
 Initialization pass.
 Trust Radius=3.00D-01 FncErr=1.00D-07 GrdErr=1.00D-07 EigMax=2.50D+02 EigMin=1.00D-04
 Number of steps in this run=      2 maximum allowed number of steps=      2.
 GradGradGradGradGradGradGradGradGradGradGradGradGradGradGradGradGradGrad

                          Input orientation:                          
 ---------------------------------------------------------------------
 Center     Atomic      Atomic             Coordinates (Angstroms)
 Number     Number       Type             X           Y           Z
 ---------------------------------------------------------------------
      1          6           0        5.957060    4.079890    9.312840
      2          1           0        6.181560    5.018340    9.861570
      3          1           0        6.259890    3.110460    9.727320
      4          1           0        6.505360    4.076070    8.281730
      5          1           0        4.894720    3.988680    9.204220
 ---------------------------------------------------------------------
                    Distance matrix (angstroms):
                    1          2          3          4          5
     1  C    0.000000
     2  H    1.110042   0.000000
     3  H    1.096948   1.914201   0.000000
     4  H    1.167834   1.867783   1.755673   0.000000
     5  H    1.071767   1.774335   1.705460   1.858167   0.000000
 Stoichiometry    CH4
 Framework group  C1[X(CH4)]
 Deg. of freedom     9
 Full point group                 C1      NOp   1
 Largest Abelian subgroup         C1      NOp   1
 Largest concise Abelian subgroup C1      NOp   1
                         Standard orientation:                         
 ---------------------------------------------------------------------
 Center     Atomic      Atomic             Coordinates (Angstroms)
 Number     Number       Type             X           Y           Z
 ---------------------------------------------------------------------
      1          6           0        0.019134   -0.003638   -0.009633
      2          1           0        1.012242    0.338709   -0.368422
      3          1           0       -0.695529   -0.456618   -0.707745
      4          1           0       -0.594362    0.901715    0.399994
      5          1           0        0.162844   -0.761981    0.733971
 ---------------------------------------------------------------------
 Rotational constants (GHZ):         164.2336205         155.3463689         138.9537122
 Standard basis: 3-21G* (6D, 7F)
 There are    17 symmetry adapted cartesian basis functions of A   symmetry.
 There are    17 symmetry adapted basis functions of A   symmetry.
    17 basis functions,    27 primitive gaussians,    17 cartesian basis functions
     5 alpha electrons        5 beta electrons
       nuclear repulsion energy        13.1904674508 Hartrees.
 NAtoms=    5 NActive=    5 NUniq=    5 SFac= 1.00D+00 NAtFMM=   60 NAOKFM=F Big=F
 Integral buffers will be    131072 words long.
 Raffenetti 2 integral format.
 Two-electron integral symmetry is turned on.
 One-electron integrals computed using PRISM.
 NBasis=    17 RedAO= T EigKep=  3.59D-02  NBF=    17
 NBsUse=    17 1.00D-06 EigRej= -1.00D+00 NBFU=    17
 ExpMin= 1.83D-01 ExpMax= 1.72D+02 ExpMxC= 1.72D+02 IAcc=3 IRadAn=         5 AccDes= 0.00D+00
 Harris functional with IExCor=  402 and IRadAn=       5 diagonalized for initial guess.
 HarFok:  IExCor=  402 AccDes= 0.00D+00 IRadAn=         5 IDoV= 1 UseB2=F ITyADJ=14
 ICtDFT=  3500011 ScaDFX=  1.000000  1.000000  1.000000  1.000000
 FoFCou: FMM=F IPFlag=           0 FMFlag=      100000 FMFlg1=           0
         NFxFlg=           0 DoJE=T BraDBF=F KetDBF=T FulRan=T
         wScrn=  0.000000 ICntrl=       500 IOpCl=  0 I1Cent=   200000004 NGrid=           0
         NMat0=    1 NMatS0=      1 NMatT0=    0 NMatD0=    1 NMtDS0=    0 NMtDT0=    0
 Petite list used in FoFCou.
 Keep R1 ints in memory in canonical form, NReq=55236554.
 Requested convergence on RMS density matrix=1.00D-08 within 128 cycles.
 Requested convergence on MAX density matrix=1.00D-06.
 Requested convergence on             energy=1.00D-06.
 No special actions if energy rises.
 Integral accuracy reduced to 1.0D-05 until final iterations.
 Initial convergence to 1.0D-05 achieved.  Increase integral accuracy.
 SCF Done:  E(RB3LYP) =  -40.2935442432     A.U. after    9 cycles
            NFock=  9  Conv=0.39D-08     -V/T= 2.0126

 **********************************************************************

            Population analysis using the SCF Density.

 **********************************************************************

 Orbital symmetries:
       Occupied  (A) (A) (A) (A) (A)
       Virtual   (A) (A) (A) (A) (A) (A) (A) (A) (A) (A) (A) (A)
 The electronic state is 1-A.
 Alpha  occ. eigenvalues --  -10.10750  -0.68617  -0.40535  -0.39027  -0.36039
 Alpha virt. eigenvalues --    0.13649   0.16592   0.19594   0.19990   0.68980
 Alpha virt. eigenvalues --    0.72902   0.74225   0.98908   1.01547   1.05687
 Alpha virt. eigenvalues --    1.07026   1.68199
          Condensed to atoms (all electrons):
               1          2          3          4          5
     1  C    5.292264   0.371822   0.363461   0.359298   0.363983
     2  H    0.371822   0.505473  -0.014944  -0.022848  -0.029004
     3  H    0.363461  -0.014944   0.527142  -0.033389  -0.035590
     4  H    0.359298  -0.022848  -0.033389   0.548609  -0.020145
     5  H    0.363983  -0.029004  -0.035590  -0.020145   0.521222
 Mulliken charges:
               1
     1  C   -0.750828
     2  H    0.189500
     3  H    0.193320
     4  H    0.168475
     5  H    0.199534
 Sum of Mulliken charges =   0.00000
 Mulliken charges with hydrogens summed into heavy atoms:
               1
     1  C    0.000000
 Electronic spatial extent (au):  <R**2>=             36.1687
 Charge=              0.0000 electrons
 Dipole moment (field-independent basis, Debye):
    X=             -0.0456    Y=             -0.0761    Z=              0.0273  Tot=              0.0928
 Quadrupole moment (field-independent basis, Debye-Ang):
   XX=             -7.9356   YY=             -8.2465   ZZ=             -8.7223
   XY=              0.0743   XZ=              0.0357   YZ=             -0.0871
 Traceless Quadrupole moment (field-independent basis, Debye-Ang):
   XX=              0.3659   YY=              0.0550   ZZ=             -0.4208
   XY=              0.0743   XZ=              0.0357   YZ=             -0.0871
 Octapole moment (field-independent basis, Debye-Ang**2):
  XXX=              0.4308  YYY=             -0.1547  ZZZ=              0.0972  XYY=             -0.3072
  XXY=              0.2618  XXZ=             -0.4340  XZZ=             -0.1410  YZZ=             -0.3924
  YYZ=              0.3997  XYZ=             -0.4718
 Hexadecapole moment (field-independent basis, Debye-Ang**3):
 XXXX=            -15.4978 YYYY=            -15.6564 ZZZZ=            -14.7713 XXXY=              0.5025
 XXXZ=             -0.1571 YYYX=             -0.2905 YYYZ=             -0.1574 ZZZX=              0.3063
 ZZZY=             -0.2819 XXYY=             -5.0693 XXZZ=             -4.9376 YYZZ=             -4.7723
 XXYZ=              0.0956 YYXZ=             -0.0455 ZZXY=              0.1021
 N-N= 1.319046745084D+01 E-N=-1.188646890456D+02  KE= 3.979080147277D+01
 Calling FoFJK, ICntrl=      2127 FMM=F ISym2X=0 I1Cent= 0 IOpClX= 0 NMat=1 NMatS=1 NMatT=0.
 ***** Axes restored to original set *****
 -------------------------------------------------------------------
 Center     Atomic                   Forces (Hartrees/Bohr)
 Number     Number              X              Y              Z
 -------------------------------------------------------------------
      1        6           0.027451672   -0.005219782   -0.035172942
      2        1           0.004747850   -0.017896142    0.000034629
      3        1           0.007506426    0.010222423    0.015972784
      4        1          -0.023971937    0.008272699    0.029589817
      5        1          -0.015734011    0.004620801   -0.010424288
 -------------------------------------------------------------------
 Cartesian Forces:  Max     0.035172942 RMS     0.017650290

 GradGradGradGradGradGradGradGradGradGradGradGradGradGradGradGradGradGrad
 Berny optimization.
 Search for a local minimum.
 Step number   1 out of a maximum of    2
 All quantities printed in internal units (Hartrees-Bohrs-Radians)
 Second derivative matrix not updated -- first step.
 The second derivative matrix:
                          X1        Y1        Z1        X2        Y2
           X1           0.65011
           Y1           0.00863   0.69519
           Z1           0.00255   0.03460   0.55640
           X2          -0.08771  -0.03985  -0.02476   0.06783
           Y2          -0.04177  -0.25547  -0.10357   0.04652   0.24824
           Z2          -0.02604  -0.10424  -0.13870   0.02604   0.11388
           X3          -0.09001   0.05980  -0.03185   0.00704  -0.00773
           Y3           0.06421  -0.28599   0.08682   0.00758  -0.00911
           Z3          -0.03262   0.08315  -0.11388   0.01258  -0.01565
           X4          -0.10791  -0.00503   0.08320   0.00823   0.00388
           Y4          -0.00286  -0.06991  -0.00747   0.01773   0.00969
           Z4           0.08711  -0.00342  -0.22744   0.00431   0.00203
           X5          -0.36448  -0.02354  -0.02914   0.00460  -0.00091
           Y5          -0.02822  -0.08383  -0.01039  -0.03197   0.00665
           Z5          -0.03100  -0.01009  -0.07639  -0.01817   0.00330
                          Z2        X3        Y3        Z3        X4
           Z2           0.12054
           X3           0.01034   0.07694
           Y3           0.01247  -0.06900   0.27848
           Z3           0.02161   0.03096  -0.09400   0.09775
           X4          -0.01001   0.00755  -0.00228  -0.01084   0.09543
           Y4          -0.02382  -0.01689   0.00586   0.02605   0.00239
           Z4          -0.00523   0.00408  -0.00123  -0.00586  -0.09375
           X5          -0.00033  -0.00152  -0.00051  -0.00008  -0.00330
           Y5           0.00171   0.03383   0.01076   0.00044   0.00104
           Z5           0.00178  -0.01353  -0.00406   0.00038   0.03140
                          Y4        Z4        X5        Y5        Z5
           Y4           0.05391
           Z4           0.00208   0.22185
           X5          -0.00036  -0.00175   0.36470
           Y5           0.00044   0.00055   0.02532   0.06598
           Z5           0.00317   0.01669   0.03130   0.00768   0.05755
 ITU=  0
     Eigenvalues ---    0.10196   0.11021   0.12403   0.13115   0.14344
     Eigenvalues ---    0.32208   0.66901   0.81096   0.83810
 Quadratic step=3.018D-01 exceeds max=3.000D-01 adjusted using Lamda=-7.318D-04.
 Angle between NR and scaled steps=   0.10 degrees.
 Angle between quadratic step and forces=  45.04 degrees.
 Linear search not attempted -- first point.
 B after Tr=     0.000798   -0.007650   -0.009787
         Rot=    1.000000   -0.000026   -0.000003    0.000001 Ang=   0.00 deg.
 Variable       Old X    -DE/DX   Delta X   Delta X   Delta X     New X
                                 (Linear)    (Quad)   (Total)
    X1       11.25721   0.02745   0.00000   0.00318   0.00410  11.26132
    Y1        7.70987  -0.00522   0.00000  -0.02964  -0.03823   7.67164
    Z1       17.59872  -0.03517   0.00000  -0.03261  -0.04207  17.55665
    X2       11.68146   0.00475   0.00000   0.06640   0.06733  11.74879
    Y2        9.48329  -0.01790   0.00000  -0.11726  -0.12591   9.35738
    Z2       18.63567   0.00003   0.00000   0.00397  -0.00540  18.63027
    X3       11.82948   0.00751   0.00000   0.08317   0.08409  11.91357
    Y3        5.87792   0.01022   0.00000   0.06988   0.06124   5.93915
    Z3       18.38197   0.01597   0.00000   0.13442   0.12487  18.50684
    X4       12.29335  -0.02397   0.00000  -0.11835  -0.11744  12.17591
    Y4        7.70266   0.00827   0.00000   0.07346   0.06496   7.76762
    Z4       15.65020   0.02959   0.00000   0.05801   0.04855  15.69875
    X5        9.24968  -0.01573   0.00000  -0.03901  -0.03809   9.21159
    Y5        7.53751   0.00462   0.00000   0.04652   0.03794   7.57546
    Z5       17.39345  -0.01042   0.00000  -0.11651  -0.12595  17.26750
         Item               Value     Threshold  Converged?
 Maximum Force            0.035173     0.000450     NO 
 RMS     Force            0.017650     0.000300     NO 
 Maximum Displacement     0.125954     0.001800     NO 
 RMS     Displacement     0.077115     0.001200     NO 
 Predicted change in Energy=-7.279507D-03
 GradGradGradGradGradGradGradGradGradGradGradGradGradGradGradGradGradGrad

 1\1\GINC-H11R13\Force\RB3LYP\3-21G*\C1H4\ACKGYDJ0BD\08-Jul-2026\0\\#fo
 rce b3lyp/3-21G* Geom=PrintInputOrient\\Generated by MDDatasetMaker (A
 uthor: Jinzhe Zeng)\\0,1\C,5.95706,4.07989,9.31284\H,6.18156,5.01834,9
 .86157\H,6.25989,3.11046,9.72732\H,6.50536,4.07607,8.28173\H,4.89472,3
 .98868,9.20422\\Version=EM64L-G16RevB.01\State=1-A\HF=-40.2935442\RMSD
 =3.942e-09\RMSF=1.765e-02\Dipole=-0.0239739,-0.0274947,-0.001309\Quadr
 upole=-0.041374,0.2360585,-0.1946846,0.017777,-0.158307,0.1472561\PG=C
 01 [X(C1H4)]\\@


 WE MIGHT AS WELL ATTEMPT TO INTRODUCE A NEW PLANET 
 INTO THE SOLAR SYSTEM, OR TO ANNIHILATE ONE ALREADYIN EXISTENCE, 
 AS TO CREATE OR DESTROY A PARTICLE OF HYDROGEN.
 ALL THE CHANGES WE CAN PRODUCE CONSIST IN SEPARATING PARTICLES
 THAT ARE IN A STATE OF ... COMBINATION, AND JOINING 
 THOSE THAT WERE PREVIOUSLY AT A DISTANCE.

                                    -- JOHN DALTON, 1810
 Job cpu time:       0 days  0 hours  2 minutes 27.4 seconds.
 Elapsed time:       0 days  0 hours  0 minutes  3.1 seconds.
 File lengths (MBytes):  RWF=      6 Int=      0 D2E=      0 Chk=      1 Scr=      1
 Normal termination of Gaussian 16 at Wed Jul  8 17:31:55 2026.
