 Entering Gaussian System, Link 0=g16
 Input=data_O12_00.gjf
 Output=data_O12_00.log
 Initial command:
 /work/home/ackgydj0bd/apprepo/gaussian/16b.01-none_v1.3/app/g16/l1.exe "/work/home/ackgydj0bd/apprepo/gaussian/16b.01-none_v1.3/app/g16/scratch/Gau-56052.inp" -scrdir="/work/home/ackgydj0bd/apprepo/gaussian/16b.01-none_v1.3/app/g16/scratch/"
 Entering Link 1 = /work/home/ackgydj0bd/apprepo/gaussian/16b.01-none_v1.3/app/g16/l1.exe PID=     56053.
  
 Copyright (c) 1988-2017, Gaussian, Inc.  All Rights Reserved.
  
 This is part of the Gaussian(R) 16 program.  It is based on
 the Gaussian(R) 09 system (copyright 2009, Gaussian, Inc.),
 the Gaussian(R) 03 system (copyright 2003, Gaussian, Inc.),
 the Gaussian(R) 98 system (copyright 1998, Gaussian, Inc.),
 the Gaussian(R) 94 system (copyright 1995, Gaussian, Inc.),
 the Gaussian 92(TM) system (copyright 1992, Gaussian, Inc.),
 the Gaussian 90(TM) system (copyright 1990, Gaussian, Inc.),
 the Gaussian 88(TM) system (copyright 1988, Gaussian, Inc.),
 the Gaussian 86(TM) system (copyright 1986, Carnegie Mellon
 University), and the Gaussian 82(TM) system (copyright 1983,
 Carnegie Mellon University). Gaussian is a federally registered
 trademark of Gaussian, Inc.
  
 This software contains proprietary and confidential information,
 including trade secrets, belonging to Gaussian, Inc.
  
 This software is provided under written license and may be
 used, copied, transmitted, or stored only in accord with that
 written license.
  
 The following legend is applicable only to US Government
 contracts under FAR:
  
                    RESTRICTED RIGHTS LEGEND
  
 Use, reproduction and disclosure by the US Government is
 subject to restrictions as set forth in subparagraphs (a)
 and (c) of the Commercial Computer Software - Restricted
 Rights clause in FAR 52.227-19.
  
 Gaussian, Inc.
 340 Quinnipiac St., Bldg. 40, Wallingford CT 06492
  
  
 ---------------------------------------------------------------
 Warning -- This program may not be used in any manner that
 competes with the business of Gaussian, Inc. or will provide
 assistance to any competitor of Gaussian, Inc.  The licensee
 of this program is prohibited from giving any competitor of
 Gaussian, Inc. access to this program.  By using this program,
 the user acknowledges that Gaussian, Inc. is engaged in the
 business of creating and licensing software in the field of
 computational chemistry and represents and warrants to the
 licensee that it is not a competitor of Gaussian, Inc. and that
 it will not use this program in any manner prohibited above.
 ---------------------------------------------------------------
  

 Cite this work as:
 Gaussian 16, Revision B.01,
 M. J. Frisch, G. W. Trucks, H. B. Schlegel, G. E. Scuseria, 
 M. A. Robb, J. R. Cheeseman, G. Scalmani, V. Barone, 
 G. A. Petersson, H. Nakatsuji, X. Li, M. Caricato, A. V. Marenich, 
 J. Bloino, B. G. Janesko, R. Gomperts, B. Mennucci, H. P. Hratchian, 
 J. V. Ortiz, A. F. Izmaylov, J. L. Sonnenberg, D. Williams-Young, 
 F. Ding, F. Lipparini, F. Egidi, J. Goings, B. Peng, A. Petrone, 
 T. Henderson, D. Ranasinghe, V. G. Zakrzewski, J. Gao, N. Rega, 
 G. Zheng, W. Liang, M. Hada, M. Ehara, K. Toyota, R. Fukuda, 
 J. Hasegawa, M. Ishida, T. Nakajima, Y. Honda, O. Kitao, H. Nakai, 
 T. Vreven, K. Throssell, J. A. Montgomery, Jr., J. E. Peralta, 
 F. Ogliaro, M. J. Bearpark, J. J. Heyd, E. N. Brothers, K. N. Kudin, 
 V. N. Staroverov, T. A. Keith, R. Kobayashi, J. Normand, 
 K. Raghavachari, A. P. Rendell, J. C. Burant, S. S. Iyengar, 
 J. Tomasi, M. Cossi, J. M. Millam, M. Klene, C. Adamo, R. Cammi, 
 J. W. Ochterski, R. L. Martin, K. Morokuma, O. Farkas, 
 J. B. Foresman, and D. J. Fox, Gaussian, Inc., Wallingford CT, 2016.
 
 ******************************************
 Gaussian 16:  EM64L-G16RevB.01 20-Dec-2017
                 8-Jul-2026 
 ******************************************
 %nproc=64
 Will use up to   64 processors via shared memory.
 %mem=128GB
 -----------------------------------------
 #force b3lyp/3-21G* Geom=PrintInputOrient
 -----------------------------------------
 1/10=7,30=1,38=1/1,3;
 2/9=2000,12=2,17=6,18=5,40=1/2;
 3/5=5,7=1,11=2,25=1,30=1,71=1,74=-5/1,2,3;
 4//1;
 5/5=2,38=5/2;
 6/7=2,8=2,9=2,10=2,28=1/1;
 7/29=1/1,2,3,16;
 1/10=7,30=1/3;
 99//99;
 -------------------------------------------------
 Generated by MDDatasetMaker (Author: Jinzhe Zeng)
 -------------------------------------------------
 Symbolic Z-matrix:
 Charge =  0 Multiplicity = 1
 O                     18.572    5.064    -1.601 
 O                     17.897    4.988     0.009 
 O                     16.789    5.01      0.357 
 O                     18.778    6.044    -2.187 
 

 GradGradGradGradGradGradGradGradGradGradGradGradGradGradGradGradGradGrad
 Berny optimization.
 Initialization pass.
 Trust Radius=3.00D-01 FncErr=1.00D-07 GrdErr=1.00D-07 EigMax=2.50D+02 EigMin=1.00D-04
 Number of steps in this run=      2 maximum allowed number of steps=      2.
 GradGradGradGradGradGradGradGradGradGradGradGradGradGradGradGradGradGrad

                          Input orientation:                          
 ---------------------------------------------------------------------
 Center     Atomic      Atomic             Coordinates (Angstroms)
 Number     Number       Type             X           Y           Z
 ---------------------------------------------------------------------
      1          8           0       18.572000    5.064000   -1.601000
      2          8           0       17.897000    4.988000    0.009000
      3          8           0       16.789000    5.010000    0.357000
      4          8           0       18.778000    6.044000   -2.187000
 ---------------------------------------------------------------------
                    Distance matrix (angstroms):
                    1          2          3          4
     1  O    0.000000
     2  O    1.747427   0.000000
     3  O    2.648730   1.161573   0.000000
     4  O    1.160272   2.591083   3.390754   0.000000
 Stoichiometry    O4
 Framework group  C1[X(O4)]
 Deg. of freedom     6
 Full point group                 C1      NOp   1
 Largest Abelian subgroup         C1      NOp   1
 Largest concise Abelian subgroup C1      NOp   1
                         Standard orientation:                         
 ---------------------------------------------------------------------
 Center     Atomic      Atomic             Coordinates (Angstroms)
 Number     Number       Type             X           Y           Z
 ---------------------------------------------------------------------
      1          8           0       -0.849564    0.372635   -0.239333
      2          8           0        0.820757    0.310576    0.270254
      3          8           0        1.704989   -0.320456   -0.141067
      4          8           0       -1.676182   -0.362755    0.110146
 ---------------------------------------------------------------------
 Rotational constants (GHZ):          49.9982335           4.3435289           4.1675047
 Standard basis: 3-21G* (6D, 7F)
 There are    36 symmetry adapted cartesian basis functions of A   symmetry.
 There are    36 symmetry adapted basis functions of A   symmetry.
    36 basis functions,    60 primitive gaussians,    36 cartesian basis functions
    16 alpha electrons       16 beta electrons
       nuclear repulsion energy       113.5719670918 Hartrees.
 NAtoms=    4 NActive=    4 NUniq=    4 SFac= 1.00D+00 NAtFMM=   60 NAOKFM=F Big=F
 Integral buffers will be    131072 words long.
 Raffenetti 2 integral format.
 Two-electron integral symmetry is turned on.
 One-electron integrals computed using PRISM.
 NBasis=    36 RedAO= T EigKep=  3.97D-02  NBF=    36
 NBsUse=    36 1.00D-06 EigRej= -1.00D+00 NBFU=    36
 ExpMin= 3.74D-01 ExpMax= 3.22D+02 ExpMxC= 3.22D+02 IAcc=3 IRadAn=         5 AccDes= 0.00D+00
 Harris functional with IExCor=  402 and IRadAn=       5 diagonalized for initial guess.
 HarFok:  IExCor=  402 AccDes= 0.00D+00 IRadAn=         5 IDoV= 1 UseB2=F ITyADJ=14
 ICtDFT=  3500011 ScaDFX=  1.000000  1.000000  1.000000  1.000000
 FoFCou: FMM=F IPFlag=           0 FMFlag=      100000 FMFlg1=           0
         NFxFlg=           0 DoJE=T BraDBF=F KetDBF=T FulRan=T
         wScrn=  0.000000 ICntrl=       500 IOpCl=  0 I1Cent=   200000004 NGrid=           0
         NMat0=    1 NMatS0=      1 NMatT0=    0 NMatD0=    1 NMtDS0=    0 NMtDT0=    0
 Petite list used in FoFCou.
 Keep R1 ints in memory in canonical form, NReq=55517783.
 Requested convergence on RMS density matrix=1.00D-08 within 128 cycles.
 Requested convergence on MAX density matrix=1.00D-06.
 Requested convergence on             energy=1.00D-06.
 No special actions if energy rises.
 Integral accuracy reduced to 1.0D-05 until final iterations.
 EnCoef did     8 forward-backward iterations
 EnCoef did   100 forward-backward iterations
 EnCoef did     6 forward-backward iterations
 EnCoef did    19 forward-backward iterations
 Initial convergence to 1.0D-05 achieved.  Increase integral accuracy.
 SCF Done:  E(RB3LYP) =  -298.789063662     A.U. after   28 cycles
            NFock= 28  Conv=0.93D-09     -V/T= 2.0039

 **********************************************************************

            Population analysis using the SCF Density.

 **********************************************************************

 Orbital symmetries:
       Occupied  (A) (A) (A) (A) (A) (A) (A) (A) (A) (A) (A) (A)
                 (A) (A) (A) (A)
       Virtual   (A) (A) (A) (A) (A) (A) (A) (A) (A) (A) (A) (A)
                 (A) (A) (A) (A) (A) (A) (A) (A)
 The electronic state is 1-A.
 Alpha  occ. eigenvalues --  -19.21126 -19.20708 -19.15891 -19.15852  -1.36247
 Alpha  occ. eigenvalues --   -1.34359  -0.83319  -0.72943  -0.58261  -0.54798
 Alpha  occ. eigenvalues --   -0.53892  -0.51355  -0.50996  -0.44484  -0.23807
 Alpha  occ. eigenvalues --   -0.21401
 Alpha virt. eigenvalues --   -0.16428  -0.10534   0.29470   0.31905   1.23063
 Alpha virt. eigenvalues --    1.23400   1.32779   1.34951   1.35803   1.36989
 Alpha virt. eigenvalues --    1.43150   1.43738   1.50593   1.54626   1.58596
 Alpha virt. eigenvalues --    1.76785   2.19076   2.40123   2.72355   2.96346
          Condensed to atoms (all electrons):
               1          2          3          4
     1  O    7.991915   0.009522  -0.009787  -0.030658
     2  O    0.009522   8.003099  -0.031302  -0.013108
     3  O   -0.009787  -0.031302   8.075611   0.000685
     4  O   -0.030658  -0.013108   0.000685   8.078672
 Mulliken charges:
               1
     1  O    0.039008
     2  O    0.031789
     3  O   -0.035206
     4  O   -0.035591
 Sum of Mulliken charges =   0.00000
 Mulliken charges with hydrogens summed into heavy atoms:
               1
     1  O    0.039008
     2  O    0.031789
     3  O   -0.035206
     4  O   -0.035591
 Electronic spatial extent (au):  <R**2>=            266.6346
 Charge=              0.0000 electrons
 Dipole moment (field-independent basis, Debye):
    X=             -0.0398    Y=              0.0533    Z=             -0.0309  Tot=              0.0734
 Quadrupole moment (field-independent basis, Debye-Ang):
   XX=            -21.6208   YY=            -20.5770   ZZ=            -18.8698
   XY=             -0.1165   XZ=              0.8759   YZ=             -0.1431
 Traceless Quadrupole moment (field-independent basis, Debye-Ang):
   XX=             -1.2649   YY=             -0.2211   ZZ=              1.4861
   XY=             -0.1165   XZ=              0.8759   YZ=             -0.1431
 Octapole moment (field-independent basis, Debye-Ang**2):
  XXX=             -0.3759  YYY=              0.0631  ZZZ=             -0.0110  XYY=              0.0847
  XXY=              1.9800  XXZ=             -0.0099  XZZ=             -0.0262  YZZ=             -0.0614
  YYZ=              0.0124  XYZ=             -0.4973
 Hexadecapole moment (field-independent basis, Debye-Ang**3):
 XXXX=           -230.2638 YYYY=            -26.0043 ZZZZ=            -15.2704 XXXY=             -0.4271
 XXXZ=              3.8357 YYYX=              0.0344 YYYZ=             -0.1515 ZZZX=              0.2772
 ZZZY=             -0.0581 XXYY=            -42.1776 XXZZ=            -37.7656 YYZZ=             -6.7235
 XXYZ=             -0.2565 YYXZ=             -0.0660 ZZXY=             -0.0324
 N-N= 1.135719670918D+02 E-N=-9.334023641296D+02  KE= 2.976382158497D+02
 Calling FoFJK, ICntrl=      2127 FMM=F ISym2X=0 I1Cent= 0 IOpClX= 0 NMat=1 NMatS=1 NMatT=0.
 ***** Axes restored to original set *****
 -------------------------------------------------------------------
 Center     Atomic                   Forces (Hartrees/Bohr)
 Number     Number              X              Y              Z
 -------------------------------------------------------------------
      1        8          -0.009442691   -0.187126107    0.098374972
      2        8           0.209730261   -0.036228656   -0.036235785
      3        8          -0.223486326    0.025942934    0.062932096
      4        8           0.023198756    0.197411828   -0.125071283
 -------------------------------------------------------------------
 Cartesian Forces:  Max     0.223486326 RMS     0.129462790

 GradGradGradGradGradGradGradGradGradGradGradGradGradGradGradGradGradGrad
 Berny optimization.
 Search for a local minimum.
 Step number   1 out of a maximum of    2
 All quantities printed in internal units (Hartrees-Bohrs-Radians)
 Second derivative matrix not updated -- first step.
 The second derivative matrix:
                          X1        Y1        Z1        X2        Y2
           X1           0.09219
           Y1           0.16946   0.98547
           Z1          -0.17807  -0.50207   0.49644
           X2          -0.05373   0.00126   0.04584   1.22036
           Y2           0.01268  -0.04236  -0.01989  -0.02634   0.02596
           Z2           0.01837   0.00780  -0.15180  -0.36187  -0.00545
           X3           0.00950  -0.00061   0.00395  -1.16752   0.02461
           Y3          -0.00134   0.00054  -0.00053   0.02603  -0.00205
           Z3           0.03032  -0.00199   0.01262   0.31731  -0.00166
           X4          -0.04796  -0.17011   0.12828   0.00089  -0.01096
           Y4          -0.18081  -0.94366   0.52250  -0.00095   0.01845
           Z4           0.12938   0.49626  -0.35726  -0.00128   0.02700
                          Z2        X3        Y3        Z3        X4
           Z2           0.32447
           X3           0.34364   1.15805
           Y3          -0.00282  -0.02399   0.00154
           Z3          -0.17340  -0.34758   0.00365   0.16081
           X4          -0.00014  -0.00003  -0.00070  -0.00004   0.04709
           Y4           0.00047   0.00000  -0.00003   0.00000   0.18176
           Z4           0.00074  -0.00001  -0.00029  -0.00002  -0.12809
                          Y4        Z4
           Y4           0.92524
           Z4          -0.52297   0.35654
 ITU=  0
     Eigenvalues ---    0.00380   0.09006   0.19111   0.34218   2.55311
     Eigenvalues ---    2.61390
 Quadratic step=1.185D+01 exceeds max=3.000D-01 adjusted using Lamda=-2.205D-01.
 Angle between NR and scaled steps=  45.98 degrees.
 Angle between quadratic step and forces=  49.22 degrees.
 Linear search not attempted -- first point.
 B after Tr=     0.000000    0.000000    0.000000
         Rot=    1.000000    0.000000    0.000000    0.000000 Ang=   0.00 deg.
 Variable       Old X    -DE/DX   Delta X   Delta X   Delta X     New X
                                 (Linear)    (Quad)   (Total)
    X1       35.09599  -0.00944   0.00000   0.11558   0.11558  35.21157
    Y1        9.56957  -0.18713   0.00000  -0.05840  -0.05840   9.51117
    Z1       -3.02545   0.09837   0.00000   0.01752   0.01752  -3.00793
    X2       33.82043   0.20973   0.00000   0.05963   0.05963  33.88005
    Y2        9.42595  -0.03623   0.00000  -0.14139  -0.14139   9.28456
    Z2        0.01701  -0.03624   0.00000   0.05449   0.05449   0.07150
    X3       31.72661  -0.22349   0.00000  -0.11614  -0.11614  31.61047
    Y3        9.46753   0.02594   0.00000   0.09690   0.09690   9.56443
    Z3        0.67463   0.06293   0.00000   0.02271   0.02271   0.69735
    X4       35.48528   0.02320   0.00000  -0.05906  -0.05906  35.42621
    Y4       11.42150   0.19741   0.00000   0.10289   0.10289  11.52439
    Z4       -4.13283  -0.12507   0.00000  -0.09473  -0.09473  -4.22756
         Item               Value     Threshold  Converged?
 Maximum Force            0.223486     0.000450     NO 
 RMS     Force            0.129463     0.000300     NO 
 Maximum Displacement     0.141391     0.001800     NO 
 RMS     Displacement     0.086619     0.001200     NO 
 Predicted change in Energy=-5.387669D-02
 GradGradGradGradGradGradGradGradGradGradGradGradGradGradGradGradGradGrad

 1\1\GINC-H11R13\Force\RB3LYP\3-21G*\O4\ACKGYDJ0BD\08-Jul-2026\0\\#forc
 e b3lyp/3-21G* Geom=PrintInputOrient\\Generated by MDDatasetMaker (Aut
 hor: Jinzhe Zeng)\\0,1\O,18.572,5.064,-1.601\O,17.897,4.988,0.009\O,16
 .789,5.01,0.357\O,18.778,6.044,-2.187\\Version=EM64L-G16RevB.01\State=
 1-A\HF=-298.7890637\RMSD=9.322e-10\RMSF=1.295e-01\Dipole=0.0146357,-0.
 0193087,-0.0156942\Quadrupole=-0.419565,0.0904638,0.3291012,-0.0080659
 ,0.7585348,0.8873142\PG=C01 [X(O4)]\\@


 NO MATTER HOW THIN YOU SLICE IT, IT'S STILL BALONEY

                                   -- ALFRED E. SMITH
 Job cpu time:       0 days  0 hours  2 minutes 54.8 seconds.
 Elapsed time:       0 days  0 hours  0 minutes  3.5 seconds.
 File lengths (MBytes):  RWF=      6 Int=      0 D2E=      0 Chk=      1 Scr=      1
 Normal termination of Gaussian 16 at Wed Jul  8 17:33:12 2026.
