 Entering Gaussian System, Link 0=g16
 Input=data_H1_05.gjf
 Output=data_H1_05.log
 Initial command:
 /work/home/ackgydj0bd/apprepo/gaussian/16b.01-none_v1.3/app/g16/l1.exe "/work/home/ackgydj0bd/apprepo/gaussian/16b.01-none_v1.3/app/g16/scratch/Gau-39988.inp" -scrdir="/work/home/ackgydj0bd/apprepo/gaussian/16b.01-none_v1.3/app/g16/scratch/"
 Entering Link 1 = /work/home/ackgydj0bd/apprepo/gaussian/16b.01-none_v1.3/app/g16/l1.exe PID=     39989.
  
 Copyright (c) 1988-2017, Gaussian, Inc.  All Rights Reserved.
  
 This is part of the Gaussian(R) 16 program.  It is based on
 the Gaussian(R) 09 system (copyright 2009, Gaussian, Inc.),
 the Gaussian(R) 03 system (copyright 2003, Gaussian, Inc.),
 the Gaussian(R) 98 system (copyright 1998, Gaussian, Inc.),
 the Gaussian(R) 94 system (copyright 1995, Gaussian, Inc.),
 the Gaussian 92(TM) system (copyright 1992, Gaussian, Inc.),
 the Gaussian 90(TM) system (copyright 1990, Gaussian, Inc.),
 the Gaussian 88(TM) system (copyright 1988, Gaussian, Inc.),
 the Gaussian 86(TM) system (copyright 1986, Carnegie Mellon
 University), and the Gaussian 82(TM) system (copyright 1983,
 Carnegie Mellon University). Gaussian is a federally registered
 trademark of Gaussian, Inc.
  
 This software contains proprietary and confidential information,
 including trade secrets, belonging to Gaussian, Inc.
  
 This software is provided under written license and may be
 used, copied, transmitted, or stored only in accord with that
 written license.
  
 The following legend is applicable only to US Government
 contracts under FAR:
  
                    RESTRICTED RIGHTS LEGEND
  
 Use, reproduction and disclosure by the US Government is
 subject to restrictions as set forth in subparagraphs (a)
 and (c) of the Commercial Computer Software - Restricted
 Rights clause in FAR 52.227-19.
  
 Gaussian, Inc.
 340 Quinnipiac St., Bldg. 40, Wallingford CT 06492
  
  
 ---------------------------------------------------------------
 Warning -- This program may not be used in any manner that
 competes with the business of Gaussian, Inc. or will provide
 assistance to any competitor of Gaussian, Inc.  The licensee
 of this program is prohibited from giving any competitor of
 Gaussian, Inc. access to this program.  By using this program,
 the user acknowledges that Gaussian, Inc. is engaged in the
 business of creating and licensing software in the field of
 computational chemistry and represents and warrants to the
 licensee that it is not a competitor of Gaussian, Inc. and that
 it will not use this program in any manner prohibited above.
 ---------------------------------------------------------------
  

 Cite this work as:
 Gaussian 16, Revision B.01,
 M. J. Frisch, G. W. Trucks, H. B. Schlegel, G. E. Scuseria, 
 M. A. Robb, J. R. Cheeseman, G. Scalmani, V. Barone, 
 G. A. Petersson, H. Nakatsuji, X. Li, M. Caricato, A. V. Marenich, 
 J. Bloino, B. G. Janesko, R. Gomperts, B. Mennucci, H. P. Hratchian, 
 J. V. Ortiz, A. F. Izmaylov, J. L. Sonnenberg, D. Williams-Young, 
 F. Ding, F. Lipparini, F. Egidi, J. Goings, B. Peng, A. Petrone, 
 T. Henderson, D. Ranasinghe, V. G. Zakrzewski, J. Gao, N. Rega, 
 G. Zheng, W. Liang, M. Hada, M. Ehara, K. Toyota, R. Fukuda, 
 J. Hasegawa, M. Ishida, T. Nakajima, Y. Honda, O. Kitao, H. Nakai, 
 T. Vreven, K. Throssell, J. A. Montgomery, Jr., J. E. Peralta, 
 F. Ogliaro, M. J. Bearpark, J. J. Heyd, E. N. Brothers, K. N. Kudin, 
 V. N. Staroverov, T. A. Keith, R. Kobayashi, J. Normand, 
 K. Raghavachari, A. P. Rendell, J. C. Burant, S. S. Iyengar, 
 J. Tomasi, M. Cossi, J. M. Millam, M. Klene, C. Adamo, R. Cammi, 
 J. W. Ochterski, R. L. Martin, K. Morokuma, O. Farkas, 
 J. B. Foresman, and D. J. Fox, Gaussian, Inc., Wallingford CT, 2016.
 
 ******************************************
 Gaussian 16:  EM64L-G16RevB.01 20-Dec-2017
                 8-Jul-2026 
 ******************************************
 %nproc=64
 Will use up to   64 processors via shared memory.
 %mem=128GB
 -----------------------------------------
 #force b3lyp/3-21G* Geom=PrintInputOrient
 -----------------------------------------
 1/10=7,30=1,38=1/1,3;
 2/9=2000,12=2,17=6,18=5,40=1/2;
 3/5=5,7=1,11=2,25=1,30=1,71=1,74=-5/1,2,3;
 4//1;
 5/5=2,38=5/2;
 6/7=2,8=2,9=2,10=2,28=1/1;
 7/29=1/1,2,3,16;
 1/10=7,30=1/3;
 99//99;
 -------------------------------------------------
 Generated by MDDatasetMaker (Author: Jinzhe Zeng)
 -------------------------------------------------
 Symbolic Z-matrix:
 Charge =  0 Multiplicity = 1
 C                     2.04905   28.71645   16.7318 
 H                     1.99276   29.15508   17.7108 
 H                     2.54742   29.32821   16.0084 
 H                     1.08458   28.4014   16.3861 
 H                     2.7156    27.897    16.8959 
 

 GradGradGradGradGradGradGradGradGradGradGradGradGradGradGradGradGradGrad
 Berny optimization.
 Initialization pass.
 Trust Radius=3.00D-01 FncErr=1.00D-07 GrdErr=1.00D-07 EigMax=2.50D+02 EigMin=1.00D-04
 Number of steps in this run=      2 maximum allowed number of steps=      2.
 GradGradGradGradGradGradGradGradGradGradGradGradGradGradGradGradGradGrad

                          Input orientation:                          
 ---------------------------------------------------------------------
 Center     Atomic      Atomic             Coordinates (Angstroms)
 Number     Number       Type             X           Y           Z
 ---------------------------------------------------------------------
      1          6           0        2.049050   28.716450   16.731800
      2          1           0        1.992760   29.155080   17.710800
      3          1           0        2.547420   29.328210   16.008400
      4          1           0        1.084580   28.401400   16.386100
      5          1           0        2.715600   27.897000   16.895900
 ---------------------------------------------------------------------
                    Distance matrix (angstroms):
                    1          2          3          4          5
     1  C    0.000000
     2  H    1.074247   0.000000
     3  H    1.070481   1.798829   0.000000
     4  H    1.071899   1.774163   1.772438   0.000000
     5  H    1.068979   1.664129   1.692425   1.781724   0.000000
 Stoichiometry    CH4
 Framework group  C1[X(CH4)]
 Deg. of freedom     9
 Full point group                 C1      NOp   1
 Largest Abelian subgroup         C1      NOp   1
 Largest concise Abelian subgroup C1      NOp   1
                         Standard orientation:                         
 ---------------------------------------------------------------------
 Center     Atomic      Atomic             Coordinates (Angstroms)
 Number     Number       Type             X           Y           Z
 ---------------------------------------------------------------------
      1          6           0        0.015254   -0.003840   -0.009267
      2          1           0       -0.663975   -0.609265   -0.580332
      3          1           0        0.211800    0.955790   -0.441019
      4          1           0        0.921883   -0.531429    0.211281
      5          1           0       -0.561234    0.207945    0.865675
 ---------------------------------------------------------------------
 Rotational constants (GHZ):         170.7552818         168.3308597         153.6615101
 Standard basis: 3-21G* (6D, 7F)
 There are    17 symmetry adapted cartesian basis functions of A   symmetry.
 There are    17 symmetry adapted basis functions of A   symmetry.
    17 basis functions,    27 primitive gaussians,    17 cartesian basis functions
     5 alpha electrons        5 beta electrons
       nuclear repulsion energy        13.6725814971 Hartrees.
 NAtoms=    5 NActive=    5 NUniq=    5 SFac= 1.00D+00 NAtFMM=   60 NAOKFM=F Big=F
 Integral buffers will be    131072 words long.
 Raffenetti 2 integral format.
 Two-electron integral symmetry is turned on.
 One-electron integrals computed using PRISM.
 NBasis=    17 RedAO= T EigKep=  3.18D-02  NBF=    17
 NBsUse=    17 1.00D-06 EigRej= -1.00D+00 NBFU=    17
 ExpMin= 1.83D-01 ExpMax= 1.72D+02 ExpMxC= 1.72D+02 IAcc=3 IRadAn=         5 AccDes= 0.00D+00
 Harris functional with IExCor=  402 and IRadAn=       5 diagonalized for initial guess.
 HarFok:  IExCor=  402 AccDes= 0.00D+00 IRadAn=         5 IDoV= 1 UseB2=F ITyADJ=14
 ICtDFT=  3500011 ScaDFX=  1.000000  1.000000  1.000000  1.000000
 FoFCou: FMM=F IPFlag=           0 FMFlag=      100000 FMFlg1=           0
         NFxFlg=           0 DoJE=T BraDBF=F KetDBF=T FulRan=T
         wScrn=  0.000000 ICntrl=       500 IOpCl=  0 I1Cent=   200000004 NGrid=           0
         NMat0=    1 NMatS0=      1 NMatT0=    0 NMatD0=    1 NMtDS0=    0 NMtDT0=    0
 Petite list used in FoFCou.
 Keep R1 ints in memory in canonical form, NReq=55236554.
 Requested convergence on RMS density matrix=1.00D-08 within 128 cycles.
 Requested convergence on MAX density matrix=1.00D-06.
 Requested convergence on             energy=1.00D-06.
 No special actions if energy rises.
 Integral accuracy reduced to 1.0D-05 until final iterations.
 Initial convergence to 1.0D-05 achieved.  Increase integral accuracy.
 SCF Done:  E(RB3LYP) =  -40.2975475185     A.U. after    9 cycles
            NFock=  9  Conv=0.19D-08     -V/T= 2.0077

 **********************************************************************

            Population analysis using the SCF Density.

 **********************************************************************

 Orbital symmetries:
       Occupied  (A) (A) (A) (A) (A)
       Virtual   (A) (A) (A) (A) (A) (A) (A) (A) (A) (A) (A) (A)
 The electronic state is 1-A.
 Alpha  occ. eigenvalues --  -10.09090  -0.69747  -0.40313  -0.39978  -0.37421
 Alpha virt. eigenvalues --    0.15130   0.19203   0.20479   0.20590   0.68433
 Alpha virt. eigenvalues --    0.70382   0.70678   1.04765   1.06073   1.07977
 Alpha virt. eigenvalues --    1.08977   1.70353
          Condensed to atoms (all electrons):
               1          2          3          4          5
     1  C    5.303498   0.369588   0.371815   0.375555   0.363624
     2  H    0.369588   0.517794  -0.021040  -0.024678  -0.036906
     3  H    0.371815  -0.021040   0.510932  -0.024924  -0.033200
     4  H    0.375555  -0.024678  -0.024924   0.500838  -0.022501
     5  H    0.363624  -0.036906  -0.033200  -0.022501   0.532275
 Mulliken charges:
               1
     1  C   -0.784080
     2  H    0.195243
     3  H    0.196417
     4  H    0.195711
     5  H    0.196709
 Sum of Mulliken charges =   0.00000
 Mulliken charges with hydrogens summed into heavy atoms:
               1
     1  C    0.000000
 Electronic spatial extent (au):  <R**2>=             34.6793
 Charge=              0.0000 electrons
 Dipole moment (field-independent basis, Debye):
    X=             -0.0756    Y=              0.0218    Z=              0.0551  Tot=              0.0960
 Quadrupole moment (field-independent basis, Debye-Ang):
   XX=             -8.0024   YY=             -8.0687   ZZ=             -8.5354
   XY=             -0.0078   XZ=              0.0071   YZ=             -0.0125
 Traceless Quadrupole moment (field-independent basis, Debye-Ang):
   XX=              0.1998   YY=              0.1335   ZZ=             -0.3332
   XY=             -0.0078   XZ=              0.0071   YZ=             -0.0125
 Octapole moment (field-independent basis, Debye-Ang**2):
  XXX=              0.1455  YYY=              0.4476  ZZZ=              0.2944  XYY=              0.1082
  XXY=             -0.4845  XXZ=              0.1623  XZZ=             -0.3881  YZZ=              0.0839
  YYZ=             -0.3331  XYZ=             -0.3765
 Hexadecapole moment (field-independent basis, Debye-Ang**3):
 XXXX=            -14.5708 YYYY=            -14.4326 ZZZZ=            -14.2087 XXXY=             -0.3011
 XXXZ=              0.2048 YYYX=              0.1907 YYYZ=             -0.3197 ZZZX=             -0.2437
 ZZZY=              0.1501 XXYY=             -4.7127 XXZZ=             -4.6494 YYZZ=             -4.7274
 XXYZ=              0.0982 YYXZ=              0.1038 ZZXY=              0.0604
 N-N= 1.367258149714D+01 E-N=-1.199744123189D+02  KE= 3.999141062565D+01
 Calling FoFJK, ICntrl=      2127 FMM=F ISym2X=0 I1Cent= 0 IOpClX= 0 NMat=1 NMatS=1 NMatT=0.
 ***** Axes restored to original set *****
 -------------------------------------------------------------------
 Center     Atomic                   Forces (Hartrees/Bohr)
 Number     Number              X              Y              Z
 -------------------------------------------------------------------
      1        6           0.010407694   -0.005307181    0.007649780
      2        1          -0.006547014    0.017418813    0.007352894
      3        1           0.001241478    0.017273683   -0.007756475
      4        1          -0.010673738   -0.005299294   -0.003927439
      5        1           0.005571580   -0.024086022   -0.003318761
 -------------------------------------------------------------------
 Cartesian Forces:  Max     0.024086022 RMS     0.010755037

 GradGradGradGradGradGradGradGradGradGradGradGradGradGradGradGradGradGrad
 Berny optimization.
 Search for a local minimum.
 Step number   1 out of a maximum of    2
 All quantities printed in internal units (Hartrees-Bohrs-Radians)
 Second derivative matrix not updated -- first step.
 The second derivative matrix:
                          X1        Y1        Z1        X2        Y2
           X1           0.74122
           Y1           0.02520   0.64663
           Z1           0.01010  -0.01237   0.73118
           X2          -0.08507  -0.00248   0.01180   0.06374
           Y2          -0.00060  -0.12159  -0.10660  -0.00392   0.10703
           Z2           0.01648  -0.11009  -0.31855  -0.01568   0.11624
           X3          -0.14734  -0.08613   0.08974   0.00331   0.00422
           Y3          -0.08196  -0.16963   0.11097   0.01292   0.02258
           Z3           0.08525   0.11154  -0.21602   0.01321   0.02200
           X4          -0.31395  -0.07788  -0.08194   0.01598   0.00227
           Y4          -0.08193  -0.10396  -0.02671  -0.01288  -0.00114
           Z4          -0.08147  -0.02510  -0.11696  -0.03284  -0.00530
           X5          -0.19487   0.14130  -0.02970   0.00203  -0.00197
           Y5           0.13929  -0.25145   0.03470   0.00636  -0.00688
           Z5          -0.03037   0.03601  -0.07966   0.02351  -0.02634
                          Z2        X3        Y3        Z3        X4
           Z2           0.31400
           X3          -0.00170   0.12889
           Y3          -0.00937   0.08603   0.15780
           Z3          -0.00910  -0.09453  -0.12161   0.20373
           X4          -0.00010  -0.00419  -0.00082  -0.00358   0.31054
           Y4          -0.00023  -0.01589  -0.00098  -0.01177   0.08395
           Z4           0.00049   0.02617   0.00318   0.02072   0.08913
           X5           0.00100   0.01933  -0.01617  -0.00036  -0.00839
           Y5           0.00345   0.01178  -0.00978  -0.00016  -0.00752
           Z5           0.01315  -0.01968   0.01683   0.00067  -0.00350
                          Y4        Z4        X5        Y5        Z5
           Y4           0.08218
           Z4           0.02801   0.09573
           X5           0.02675  -0.00098   0.18189
           Y5           0.02390  -0.00080  -0.14991   0.24420
           Z5           0.01070   0.00002   0.03005  -0.03720   0.06581
 ITU=  0
     Eigenvalues ---    0.11294   0.11807   0.13487   0.14159   0.15188
     Eigenvalues ---    0.37035   0.80923   0.88755   0.90255
 Angle between quadratic step and forces=  31.10 degrees.
 Linear search not attempted -- first point.
 B after Tr=     0.011540   -0.007439    0.005838
         Rot=    1.000000    0.000007    0.000001   -0.000012 Ang=   0.00 deg.
 Variable       Old X    -DE/DX   Delta X   Delta X   Delta X     New X
                                 (Linear)    (Quad)   (Total)
    X1        3.87214   0.01041   0.00000   0.03489   0.04501   3.91715
    Y1       54.26623  -0.00531   0.00000  -0.02378  -0.03068  54.23555
    Z1       31.61852   0.00765   0.00000   0.01753   0.02261  31.64113
    X2        3.76577  -0.00655   0.00000  -0.04812  -0.03804   3.72774
    Y2       55.09512   0.01742   0.00000   0.12313   0.11626  55.21138
    Z2       33.46856   0.00735   0.00000  -0.01074  -0.00567  33.46289
    X3        4.81393   0.00124   0.00000  -0.03373  -0.02364   4.79028
    Y3       55.42228   0.01727   0.00000   0.09518   0.08829  55.51057
    Z3       30.25149  -0.00776   0.00000   0.00839   0.01345  30.26494
    X4        2.04956  -0.01067   0.00000   0.00131   0.01145   2.06101
    Y4       53.67087  -0.00530   0.00000  -0.01721  -0.02416  53.64671
    Z4       30.96524  -0.00393   0.00000   0.00105   0.00613  30.97137
    X5        5.13174   0.00557   0.00000  -0.00493   0.00522   5.13696
    Y5       52.71769  -0.02409   0.00000  -0.14285  -0.14971  52.56798
    Z5       31.92862  -0.00332   0.00000  -0.04163  -0.03652  31.89210
         Item               Value     Threshold  Converged?
 Maximum Force            0.024086     0.000450     NO 
 RMS     Force            0.010755     0.000300     NO 
 Maximum Displacement     0.149710     0.001800     NO 
 RMS     Displacement     0.058614     0.001200     NO 
 Predicted change in Energy=-4.082977D-03
 GradGradGradGradGradGradGradGradGradGradGradGradGradGradGradGradGradGrad

 1\1\GINC-H11R13\Force\RB3LYP\3-21G*\C1H4\ACKGYDJ0BD\08-Jul-2026\0\\#fo
 rce b3lyp/3-21G* Geom=PrintInputOrient\\Generated by MDDatasetMaker (A
 uthor: Jinzhe Zeng)\\0,1\C,2.04905,28.71645,16.7318\H,1.99276,29.15508
 ,17.7108\H,2.54742,29.32821,16.0084\H,1.08458,28.4014,16.3861\H,2.7156
 ,27.897,16.8959\\Version=EM64L-G16RevB.01\State=1-A\HF=-40.2975475\RMS
 D=1.908e-09\RMSF=1.076e-02\Dipole=0.0293886,-0.019715,0.0132285\Quadru
 pole=0.1178803,-0.2310175,0.1131372,0.0581775,0.0333649,-0.0475788\PG=
 C01 [X(C1H4)]\\@


 IF I AM NOT FOR MYSELF, WHO WILL BE?
 BUT IF I AM ONLY FOR MYSELF, WHAT AM I?
 THOUGH A SEEKER SINCE MY BIRTH,
 HERE IS ALL I'VE LEARNED ON EARTH,
 THIS IS THE GIST OF WHAT I KNOW:
 GIVE ADVICE AND BUY A FOE.

 PRESSED FOR RULES AND VERITIES,
 ALL I RECOLLECT ARE THESE:
 FEED A COLD TO STARVE A FEVER,
 ARGUE WITH NO TRUE-BELIEVER.
 THINK-TOO-LONG IS NEVER-ACT,
 SCRATCH A MYTH AND FIND A FACT.

 STITCH IN TIME SAVES TWENTY STITCHES,
 GIVE THE RICH TO PLEASE THEM, RICHES.
 GIVE TO LOVE YOU HEARTH AND HALL,
 BUT DO NOT GIVE ADVICE AT ALL.

                                  -- HILLEL
 Job cpu time:       0 days  0 hours  2 minutes 43.4 seconds.
 Elapsed time:       0 days  0 hours  0 minutes  3.3 seconds.
 File lengths (MBytes):  RWF=      6 Int=      0 D2E=      0 Chk=      1 Scr=      1
 Normal termination of Gaussian 16 at Wed Jul  8 17:32:18 2026.
