 Entering Gaussian System, Link 0=g16
 Input=data_C1111_05.gjf
 Output=data_C1111_05.log
 Initial command:
 /work/home/ackgydj0bd/apprepo/gaussian/16b.01-none_v1.3/app/g16/l1.exe "/work/home/ackgydj0bd/apprepo/gaussian/16b.01-none_v1.3/app/g16/scratch/Gau-29022.inp" -scrdir="/work/home/ackgydj0bd/apprepo/gaussian/16b.01-none_v1.3/app/g16/scratch/"
 Entering Link 1 = /work/home/ackgydj0bd/apprepo/gaussian/16b.01-none_v1.3/app/g16/l1.exe PID=     29023.
  
 Copyright (c) 1988-2017, Gaussian, Inc.  All Rights Reserved.
  
 This is part of the Gaussian(R) 16 program.  It is based on
 the Gaussian(R) 09 system (copyright 2009, Gaussian, Inc.),
 the Gaussian(R) 03 system (copyright 2003, Gaussian, Inc.),
 the Gaussian(R) 98 system (copyright 1998, Gaussian, Inc.),
 the Gaussian(R) 94 system (copyright 1995, Gaussian, Inc.),
 the Gaussian 92(TM) system (copyright 1992, Gaussian, Inc.),
 the Gaussian 90(TM) system (copyright 1990, Gaussian, Inc.),
 the Gaussian 88(TM) system (copyright 1988, Gaussian, Inc.),
 the Gaussian 86(TM) system (copyright 1986, Carnegie Mellon
 University), and the Gaussian 82(TM) system (copyright 1983,
 Carnegie Mellon University). Gaussian is a federally registered
 trademark of Gaussian, Inc.
  
 This software contains proprietary and confidential information,
 including trade secrets, belonging to Gaussian, Inc.
  
 This software is provided under written license and may be
 used, copied, transmitted, or stored only in accord with that
 written license.
  
 The following legend is applicable only to US Government
 contracts under FAR:
  
                    RESTRICTED RIGHTS LEGEND
  
 Use, reproduction and disclosure by the US Government is
 subject to restrictions as set forth in subparagraphs (a)
 and (c) of the Commercial Computer Software - Restricted
 Rights clause in FAR 52.227-19.
  
 Gaussian, Inc.
 340 Quinnipiac St., Bldg. 40, Wallingford CT 06492
  
  
 ---------------------------------------------------------------
 Warning -- This program may not be used in any manner that
 competes with the business of Gaussian, Inc. or will provide
 assistance to any competitor of Gaussian, Inc.  The licensee
 of this program is prohibited from giving any competitor of
 Gaussian, Inc. access to this program.  By using this program,
 the user acknowledges that Gaussian, Inc. is engaged in the
 business of creating and licensing software in the field of
 computational chemistry and represents and warrants to the
 licensee that it is not a competitor of Gaussian, Inc. and that
 it will not use this program in any manner prohibited above.
 ---------------------------------------------------------------
  

 Cite this work as:
 Gaussian 16, Revision B.01,
 M. J. Frisch, G. W. Trucks, H. B. Schlegel, G. E. Scuseria, 
 M. A. Robb, J. R. Cheeseman, G. Scalmani, V. Barone, 
 G. A. Petersson, H. Nakatsuji, X. Li, M. Caricato, A. V. Marenich, 
 J. Bloino, B. G. Janesko, R. Gomperts, B. Mennucci, H. P. Hratchian, 
 J. V. Ortiz, A. F. Izmaylov, J. L. Sonnenberg, D. Williams-Young, 
 F. Ding, F. Lipparini, F. Egidi, J. Goings, B. Peng, A. Petrone, 
 T. Henderson, D. Ranasinghe, V. G. Zakrzewski, J. Gao, N. Rega, 
 G. Zheng, W. Liang, M. Hada, M. Ehara, K. Toyota, R. Fukuda, 
 J. Hasegawa, M. Ishida, T. Nakajima, Y. Honda, O. Kitao, H. Nakai, 
 T. Vreven, K. Throssell, J. A. Montgomery, Jr., J. E. Peralta, 
 F. Ogliaro, M. J. Bearpark, J. J. Heyd, E. N. Brothers, K. N. Kudin, 
 V. N. Staroverov, T. A. Keith, R. Kobayashi, J. Normand, 
 K. Raghavachari, A. P. Rendell, J. C. Burant, S. S. Iyengar, 
 J. Tomasi, M. Cossi, J. M. Millam, M. Klene, C. Adamo, R. Cammi, 
 J. W. Ochterski, R. L. Martin, K. Morokuma, O. Farkas, 
 J. B. Foresman, and D. J. Fox, Gaussian, Inc., Wallingford CT, 2016.
 
 ******************************************
 Gaussian 16:  EM64L-G16RevB.01 20-Dec-2017
                 8-Jul-2026 
 ******************************************
 %nproc=64
 Will use up to   64 processors via shared memory.
 %mem=128GB
 -----------------------------------------
 #force b3lyp/3-21G* Geom=PrintInputOrient
 -----------------------------------------
 1/10=7,30=1,38=1/1,3;
 2/9=2000,12=2,17=6,18=5,40=1/2;
 3/5=5,7=1,11=2,25=1,30=1,71=1,74=-5/1,2,3;
 4//1;
 5/5=2,38=5/2;
 6/7=2,8=2,9=2,10=2,28=1/1;
 7/29=1/1,2,3,16;
 1/10=7,30=1/3;
 99//99;
 -------------------------------------------------
 Generated by MDDatasetMaker (Author: Jinzhe Zeng)
 -------------------------------------------------
 Symbolic Z-matrix:
 Charge =  0 Multiplicity = 1
 C                     26.787    24.064    4.55909 
 H                     25.8424   23.7315   4.73704 
 H                     27.1376   24.6158   5.44725 
 H                     26.9945   24.6893   3.69435 
 H                     27.2942   23.099    4.41174 
 

 GradGradGradGradGradGradGradGradGradGradGradGradGradGradGradGradGradGrad
 Berny optimization.
 Initialization pass.
 Trust Radius=3.00D-01 FncErr=1.00D-07 GrdErr=1.00D-07 EigMax=2.50D+02 EigMin=1.00D-04
 Number of steps in this run=      2 maximum allowed number of steps=      2.
 GradGradGradGradGradGradGradGradGradGradGradGradGradGradGradGradGradGrad

                          Input orientation:                          
 ---------------------------------------------------------------------
 Center     Atomic      Atomic             Coordinates (Angstroms)
 Number     Number       Type             X           Y           Z
 ---------------------------------------------------------------------
      1          6           0       26.787000   24.064000    4.559090
      2          1           0       25.842400   23.731500    4.737040
      3          1           0       27.137600   24.615800    5.447250
      4          1           0       26.994500   24.689300    3.694350
      5          1           0       27.294200   23.099000    4.411740
 ---------------------------------------------------------------------
                    Distance matrix (angstroms):
                    1          2          3          4          5
     1  C    0.000000
     2  H    1.017100   0.000000
     3  H    1.102829   1.721606   0.000000
     4  H    1.087121   1.825354   1.760267   0.000000
     5  H    1.100086   1.616663   1.843227   1.770176   0.000000
 Stoichiometry    CH4
 Framework group  C1[X(CH4)]
 Deg. of freedom     9
 Full point group                 C1      NOp   1
 Largest Abelian subgroup         C1      NOp   1
 Largest concise Abelian subgroup C1      NOp   1
                         Standard orientation:                         
 ---------------------------------------------------------------------
 Center     Atomic      Atomic             Coordinates (Angstroms)
 Number     Number       Type             X           Y           Z
 ---------------------------------------------------------------------
      1          6           0        0.007841    0.000380    0.016069
      2          1           0       -0.600293   -0.405721    0.722996
      3          1           0        0.628086   -0.802598   -0.416083
      4          1           0        0.678588    0.816467    0.272842
      5          1           0       -0.753426    0.389572   -0.676168
 ---------------------------------------------------------------------
 Rotational constants (GHZ):         175.5082399         166.3987341         147.0227512
 Standard basis: 3-21G* (6D, 7F)
 There are    17 symmetry adapted cartesian basis functions of A   symmetry.
 There are    17 symmetry adapted basis functions of A   symmetry.
    17 basis functions,    27 primitive gaussians,    17 cartesian basis functions
     5 alpha electrons        5 beta electrons
       nuclear repulsion energy        13.6187747153 Hartrees.
 NAtoms=    5 NActive=    5 NUniq=    5 SFac= 1.00D+00 NAtFMM=   60 NAOKFM=F Big=F
 Integral buffers will be    131072 words long.
 Raffenetti 2 integral format.
 Two-electron integral symmetry is turned on.
 One-electron integrals computed using PRISM.
 NBasis=    17 RedAO= T EigKep=  3.24D-02  NBF=    17
 NBsUse=    17 1.00D-06 EigRej= -1.00D+00 NBFU=    17
 ExpMin= 1.83D-01 ExpMax= 1.72D+02 ExpMxC= 1.72D+02 IAcc=3 IRadAn=         5 AccDes= 0.00D+00
 Harris functional with IExCor=  402 and IRadAn=       5 diagonalized for initial guess.
 HarFok:  IExCor=  402 AccDes= 0.00D+00 IRadAn=         5 IDoV= 1 UseB2=F ITyADJ=14
 ICtDFT=  3500011 ScaDFX=  1.000000  1.000000  1.000000  1.000000
 FoFCou: FMM=F IPFlag=           0 FMFlag=      100000 FMFlg1=           0
         NFxFlg=           0 DoJE=T BraDBF=F KetDBF=T FulRan=T
         wScrn=  0.000000 ICntrl=       500 IOpCl=  0 I1Cent=   200000004 NGrid=           0
         NMat0=    1 NMatS0=      1 NMatT0=    0 NMatD0=    1 NMtDS0=    0 NMtDT0=    0
 Petite list used in FoFCou.
 Keep R1 ints in memory in canonical form, NReq=55236554.
 Requested convergence on RMS density matrix=1.00D-08 within 128 cycles.
 Requested convergence on MAX density matrix=1.00D-06.
 Requested convergence on             energy=1.00D-06.
 No special actions if energy rises.
 Integral accuracy reduced to 1.0D-05 until final iterations.
 Initial convergence to 1.0D-05 achieved.  Increase integral accuracy.
 SCF Done:  E(RB3LYP) =  -40.2918792800     A.U. after    9 cycles
            NFock=  9  Conv=0.46D-08     -V/T= 2.0080

 **********************************************************************

            Population analysis using the SCF Density.

 **********************************************************************

 Orbital symmetries:
       Occupied  (A) (A) (A) (A) (A)
       Virtual   (A) (A) (A) (A) (A) (A) (A) (A) (A) (A) (A) (A)
 The electronic state is 1-A.
 Alpha  occ. eigenvalues --  -10.09328  -0.69693  -0.41777  -0.39090  -0.36527
 Alpha virt. eigenvalues --    0.14793   0.18144   0.19531   0.21927   0.67426
 Alpha virt. eigenvalues --    0.71200   0.72652   1.03041   1.04255   1.05528
 Alpha virt. eigenvalues --    1.12900   1.69186
          Condensed to atoms (all electrons):
               1          2          3          4          5
     1  C    5.299533   0.371628   0.369364   0.373831   0.363702
     2  H    0.371628   0.504726  -0.029727  -0.016661  -0.043101
     3  H    0.369364  -0.029727   0.521412  -0.029046  -0.018389
     4  H    0.373831  -0.016661  -0.029046   0.505671  -0.026924
     5  H    0.363702  -0.043101  -0.018389  -0.026924   0.539306
 Mulliken charges:
               1
     1  C   -0.778058
     2  H    0.213136
     3  H    0.186386
     4  H    0.193129
     5  H    0.185407
 Sum of Mulliken charges =   0.00000
 Mulliken charges with hydrogens summed into heavy atoms:
               1
     1  C    0.000000
 Electronic spatial extent (au):  <R**2>=             34.8949
 Charge=              0.0000 electrons
 Dipole moment (field-independent basis, Debye):
    X=             -0.0781    Y=             -0.0170    Z=              0.0046  Tot=              0.0800
 Quadrupole moment (field-independent basis, Debye-Ang):
   XX=             -7.8566   YY=             -8.1174   ZZ=             -8.6761
   XY=              0.0788   XZ=             -0.0851   YZ=             -0.0316
 Traceless Quadrupole moment (field-independent basis, Debye-Ang):
   XX=              0.3601   YY=              0.0993   ZZ=             -0.4594
   XY=              0.0788   XZ=             -0.0851   YZ=             -0.0316
 Octapole moment (field-independent basis, Debye-Ang**2):
  XXX=             -0.2695  YYY=             -0.0335  ZZZ=              0.1550  XYY=              0.4516
  XXY=              0.0806  XXZ=             -0.0409  XZZ=             -0.3705  YZZ=             -0.1144
  YYZ=              0.0053  XYZ=              0.5153
 Hexadecapole moment (field-independent basis, Debye-Ang**3):
 XXXX=            -15.2854 YYYY=            -14.8784 ZZZZ=            -14.0869 XXXY=              0.1360
 XXXZ=             -0.0488 YYYX=              0.2027 YYYZ=              0.2161 ZZZX=             -0.1819
 ZZZY=             -0.2683 XXYY=             -4.5642 XXZZ=             -4.5656 YYZZ=             -4.7545
 XXYZ=             -0.0458 YYXZ=             -0.1022 ZZXY=             -0.0134
 N-N= 1.361877471525D+01 E-N=-1.198415280199D+02  KE= 3.997089943693D+01
 Calling FoFJK, ICntrl=      2127 FMM=F ISym2X=0 I1Cent= 0 IOpClX= 0 NMat=1 NMatS=1 NMatT=0.
 ***** Axes restored to original set *****
 -------------------------------------------------------------------
 Center     Atomic                   Forces (Hartrees/Bohr)
 Number     Number              X              Y              Z
 -------------------------------------------------------------------
      1        6           0.061954460    0.003064946    0.002738993
      2        1          -0.067854355   -0.001343976    0.000698107
      3        1           0.003356267   -0.009212720   -0.002837272
      4        1          -0.012681738    0.000159376   -0.005295118
      5        1           0.015225366    0.007332373    0.004695288
 -------------------------------------------------------------------
 Cartesian Forces:  Max     0.067854355 RMS     0.024579746

 GradGradGradGradGradGradGradGradGradGradGradGradGradGradGradGradGradGrad
 Berny optimization.
 Search for a local minimum.
 Step number   1 out of a maximum of    2
 All quantities printed in internal units (Hartrees-Bohrs-Radians)
 Second derivative matrix not updated -- first step.
 The second derivative matrix:
                          X1        Y1        Z1        X2        Y2
           X1           0.71181
           Y1           0.08423   0.70451
           Z1          -0.04775  -0.01943   0.68695
           X2          -0.39663  -0.11073   0.05602   0.39529
           Y2          -0.11525  -0.12046   0.02464   0.11676   0.10480
           Z2           0.05755   0.02432  -0.10464  -0.06185  -0.02157
           X3          -0.09857  -0.04530  -0.06347  -0.00063  -0.01518
           Y3          -0.04442  -0.13961  -0.09761  -0.00041  -0.00231
           Z3          -0.06523  -0.10271  -0.24801   0.00050   0.00743
           X4          -0.09131  -0.03318   0.03759   0.01278  -0.01909
           Y4          -0.03310  -0.16710   0.12230   0.00037  -0.00014
           Z4           0.03849   0.12536  -0.25402   0.00333  -0.00469
           X5          -0.12530   0.10498   0.01761  -0.01081   0.03277
           Y5           0.10854  -0.27734  -0.02990  -0.00599   0.01811
           Z5           0.01694  -0.02754  -0.08028   0.00200  -0.00581
                          Z2        X3        Y3        Z3        X4
           Z2           0.07944
           X3          -0.03170   0.08092
           Y3          -0.00649   0.04915   0.12624
           Z3           0.01655   0.06925   0.10950   0.23835
           X4           0.03214   0.00502   0.01061  -0.00858   0.06595
           Y4           0.00167   0.00733   0.02009  -0.01538   0.03495
           Z4           0.00892   0.00651   0.01708  -0.01318  -0.04324
           X5           0.00386   0.01325  -0.01494   0.00405   0.00756
           Y5           0.00207   0.00400  -0.00442   0.00117   0.00671
           Z5          -0.00027   0.01942  -0.02247   0.00630  -0.01792
                          Y4        Z4        X5        Y5        Z5
           Y4           0.15590
           Z4          -0.13303   0.24490
           X5          -0.00955  -0.00509   0.11530
           Y5          -0.00875  -0.00472  -0.11326   0.27240
           Z5           0.02444   0.01337  -0.02043   0.03138   0.06088
 ITU=  0
     Eigenvalues ---    0.10814   0.12086   0.13144   0.13774   0.15674
     Eigenvalues ---    0.36155   0.77470   0.81011   1.00008
 Quadratic step=3.273D-01 exceeds max=3.000D-01 adjusted using Lamda=-1.148D-02.
 Angle between NR and scaled steps=   1.45 degrees.
 Angle between quadratic step and forces=  50.05 degrees.
 Linear search not attempted -- first point.
 B after Tr=     0.007798   -0.009463    0.002792
         Rot=    1.000000    0.000012    0.000006   -0.000015 Ang=   0.00 deg.
 Variable       Old X    -DE/DX   Delta X   Delta X   Delta X     New X
                                 (Linear)    (Quad)   (Total)
    X1       50.62009   0.06195   0.00000   0.02190   0.02825  50.64834
    Y1       45.47437   0.00306   0.00000  -0.02675  -0.03451  45.43986
    Z1        8.61543   0.00274   0.00000   0.00795   0.01026   8.62569
    X2       48.83506  -0.06785   0.00000  -0.18436  -0.17800  48.65706
    Y2       44.84604  -0.00134   0.00000   0.10335   0.09555  44.94158
    Z2        8.95171   0.00070   0.00000  -0.05121  -0.04892   8.90279
    X3       51.28263   0.00336   0.00000   0.05994   0.06624  51.34887
    Y3       46.51712  -0.00921   0.00000  -0.06598  -0.07368  46.44344
    Z3       10.29381  -0.00284   0.00000  -0.00365  -0.00136  10.29245
    X4       51.01221  -0.01268   0.00000  -0.08159  -0.07526  50.93695
    Y4       46.65602   0.00016   0.00000  -0.00932  -0.01711  46.63890
    Z4        6.98131  -0.00530   0.00000  -0.01166  -0.00938   6.97193
    X5       51.57856   0.01523   0.00000   0.15237   0.15877  51.73734
    Y5       43.65078   0.00733   0.00000   0.03748   0.02975  43.68054
    Z5        8.33698   0.00470   0.00000   0.04704   0.04940   8.38638
         Item               Value     Threshold  Converged?
 Maximum Force            0.067854     0.000450     NO 
 RMS     Force            0.024580     0.000300     NO 
 Maximum Displacement     0.177998     0.001800     NO 
 RMS     Displacement     0.077329     0.001200     NO 
 Predicted change in Energy=-9.698495D-03
 GradGradGradGradGradGradGradGradGradGradGradGradGradGradGradGradGradGrad

 1\1\GINC-H11R13\Force\RB3LYP\3-21G*\C1H4\ACKGYDJ0BD\08-Jul-2026\0\\#fo
 rce b3lyp/3-21G* Geom=PrintInputOrient\\Generated by MDDatasetMaker (A
 uthor: Jinzhe Zeng)\\0,1\C,26.787,24.064,4.55909\H,25.8424,23.7315,4.7
 3704\H,27.1376,24.6158,5.44725\H,26.9945,24.6893,3.69435\H,27.2942,23.
 099,4.41174\\Version=EM64L-G16RevB.01\State=1-A\HF=-40.2918793\RMSD=4.
 634e-09\RMSF=2.458e-02\Dipole=-0.0129692,-0.0280044,0.0062459\Quadrupo
 le=-0.1921858,0.1701501,0.0220357,0.2238037,-0.1468162,0.0054942\PG=C0
 1 [X(C1H4)]\\@


 The impersonal hand of government can
 never replace the helping hand of a neighbor.
                        -- Hubert H. Humphrey
 Job cpu time:       0 days  0 hours  2 minutes 32.6 seconds.
 Elapsed time:       0 days  0 hours  0 minutes  3.2 seconds.
 File lengths (MBytes):  RWF=      6 Int=      0 D2E=      0 Chk=      1 Scr=      1
 Normal termination of Gaussian 16 at Wed Jul  8 17:31:42 2026.
