 Entering Gaussian System, Link 0=g16
 Input=data_H1_06.gjf
 Output=data_H1_06.log
 Initial command:
 /work/home/ackgydj0bd/apprepo/gaussian/16b.01-none_v1.3/app/g16/l1.exe "/work/home/ackgydj0bd/apprepo/gaussian/16b.01-none_v1.3/app/g16/scratch/Gau-41009.inp" -scrdir="/work/home/ackgydj0bd/apprepo/gaussian/16b.01-none_v1.3/app/g16/scratch/"
 Entering Link 1 = /work/home/ackgydj0bd/apprepo/gaussian/16b.01-none_v1.3/app/g16/l1.exe PID=     41011.
  
 Copyright (c) 1988-2017, Gaussian, Inc.  All Rights Reserved.
  
 This is part of the Gaussian(R) 16 program.  It is based on
 the Gaussian(R) 09 system (copyright 2009, Gaussian, Inc.),
 the Gaussian(R) 03 system (copyright 2003, Gaussian, Inc.),
 the Gaussian(R) 98 system (copyright 1998, Gaussian, Inc.),
 the Gaussian(R) 94 system (copyright 1995, Gaussian, Inc.),
 the Gaussian 92(TM) system (copyright 1992, Gaussian, Inc.),
 the Gaussian 90(TM) system (copyright 1990, Gaussian, Inc.),
 the Gaussian 88(TM) system (copyright 1988, Gaussian, Inc.),
 the Gaussian 86(TM) system (copyright 1986, Carnegie Mellon
 University), and the Gaussian 82(TM) system (copyright 1983,
 Carnegie Mellon University). Gaussian is a federally registered
 trademark of Gaussian, Inc.
  
 This software contains proprietary and confidential information,
 including trade secrets, belonging to Gaussian, Inc.
  
 This software is provided under written license and may be
 used, copied, transmitted, or stored only in accord with that
 written license.
  
 The following legend is applicable only to US Government
 contracts under FAR:
  
                    RESTRICTED RIGHTS LEGEND
  
 Use, reproduction and disclosure by the US Government is
 subject to restrictions as set forth in subparagraphs (a)
 and (c) of the Commercial Computer Software - Restricted
 Rights clause in FAR 52.227-19.
  
 Gaussian, Inc.
 340 Quinnipiac St., Bldg. 40, Wallingford CT 06492
  
  
 ---------------------------------------------------------------
 Warning -- This program may not be used in any manner that
 competes with the business of Gaussian, Inc. or will provide
 assistance to any competitor of Gaussian, Inc.  The licensee
 of this program is prohibited from giving any competitor of
 Gaussian, Inc. access to this program.  By using this program,
 the user acknowledges that Gaussian, Inc. is engaged in the
 business of creating and licensing software in the field of
 computational chemistry and represents and warrants to the
 licensee that it is not a competitor of Gaussian, Inc. and that
 it will not use this program in any manner prohibited above.
 ---------------------------------------------------------------
  

 Cite this work as:
 Gaussian 16, Revision B.01,
 M. J. Frisch, G. W. Trucks, H. B. Schlegel, G. E. Scuseria, 
 M. A. Robb, J. R. Cheeseman, G. Scalmani, V. Barone, 
 G. A. Petersson, H. Nakatsuji, X. Li, M. Caricato, A. V. Marenich, 
 J. Bloino, B. G. Janesko, R. Gomperts, B. Mennucci, H. P. Hratchian, 
 J. V. Ortiz, A. F. Izmaylov, J. L. Sonnenberg, D. Williams-Young, 
 F. Ding, F. Lipparini, F. Egidi, J. Goings, B. Peng, A. Petrone, 
 T. Henderson, D. Ranasinghe, V. G. Zakrzewski, J. Gao, N. Rega, 
 G. Zheng, W. Liang, M. Hada, M. Ehara, K. Toyota, R. Fukuda, 
 J. Hasegawa, M. Ishida, T. Nakajima, Y. Honda, O. Kitao, H. Nakai, 
 T. Vreven, K. Throssell, J. A. Montgomery, Jr., J. E. Peralta, 
 F. Ogliaro, M. J. Bearpark, J. J. Heyd, E. N. Brothers, K. N. Kudin, 
 V. N. Staroverov, T. A. Keith, R. Kobayashi, J. Normand, 
 K. Raghavachari, A. P. Rendell, J. C. Burant, S. S. Iyengar, 
 J. Tomasi, M. Cossi, J. M. Millam, M. Klene, C. Adamo, R. Cammi, 
 J. W. Ochterski, R. L. Martin, K. Morokuma, O. Farkas, 
 J. B. Foresman, and D. J. Fox, Gaussian, Inc., Wallingford CT, 2016.
 
 ******************************************
 Gaussian 16:  EM64L-G16RevB.01 20-Dec-2017
                 8-Jul-2026 
 ******************************************
 %nproc=64
 Will use up to   64 processors via shared memory.
 %mem=128GB
 -----------------------------------------
 #force b3lyp/3-21G* Geom=PrintInputOrient
 -----------------------------------------
 1/10=7,30=1,38=1/1,3;
 2/9=2000,12=2,17=6,18=5,40=1/2;
 3/5=5,7=1,11=2,25=1,30=1,71=1,74=-5/1,2,3;
 4//1;
 5/5=2,38=5/2;
 6/7=2,8=2,9=2,10=2,28=1/1;
 7/29=1/1,2,3,16;
 1/10=7,30=1/3;
 99//99;
 -------------------------------------------------
 Generated by MDDatasetMaker (Author: Jinzhe Zeng)
 -------------------------------------------------
 Symbolic Z-matrix:
 Charge =  0 Multiplicity = 1
 C                     26.7071   27.0472   19.1307 
 H                     25.9983   26.1971   19.0956 
 H                     27.7281   26.802    18.7386 
 H                     27.1712   27.0439   20.0626 
 H                     26.2474   28.0206   18.7122 
 

 GradGradGradGradGradGradGradGradGradGradGradGradGradGradGradGradGradGrad
 Berny optimization.
 Initialization pass.
 Trust Radius=3.00D-01 FncErr=1.00D-07 GrdErr=1.00D-07 EigMax=2.50D+02 EigMin=1.00D-04
 Number of steps in this run=      2 maximum allowed number of steps=      2.
 GradGradGradGradGradGradGradGradGradGradGradGradGradGradGradGradGradGrad

                          Input orientation:                          
 ---------------------------------------------------------------------
 Center     Atomic      Atomic             Coordinates (Angstroms)
 Number     Number       Type             X           Y           Z
 ---------------------------------------------------------------------
      1          6           0       26.707100   27.047200   19.130700
      2          1           0       25.998300   26.197100   19.095600
      3          1           0       27.728100   26.802000   18.738600
      4          1           0       27.171200   27.043900   20.062600
      5          1           0       26.247400   28.020600   18.712200
 ---------------------------------------------------------------------
                    Distance matrix (angstroms):
                    1          2          3          4          5
     1  C    0.000000
     2  H    1.107384   0.000000
     3  H    1.120851   1.866966   0.000000
     4  H    1.041075   1.740073   1.456581   0.000000
     5  H    1.154978   1.879946   1.917852   1.905500   0.000000
 Stoichiometry    CH4
 Framework group  C1[X(CH4)]
 Deg. of freedom     9
 Full point group                 C1      NOp   1
 Largest Abelian subgroup         C1      NOp   1
 Largest concise Abelian subgroup C1      NOp   1
                         Standard orientation:                         
 ---------------------------------------------------------------------
 Center     Atomic      Atomic             Coordinates (Angstroms)
 Number     Number       Type             X           Y           Z
 ---------------------------------------------------------------------
      1          6           0        0.034616    0.005081    0.003052
      2          1           0        0.242337    1.078180   -0.174735
      3          1           0       -0.770663   -0.415154   -0.653632
      4          1           0       -0.679163   -0.066162    0.757559
      5          1           0        0.999791   -0.627348    0.052497
 ---------------------------------------------------------------------
 Rotational constants (GHZ):         181.1924142         158.7061740         129.9728211
 Standard basis: 3-21G* (6D, 7F)
 There are    17 symmetry adapted cartesian basis functions of A   symmetry.
 There are    17 symmetry adapted basis functions of A   symmetry.
    17 basis functions,    27 primitive gaussians,    17 cartesian basis functions
     5 alpha electrons        5 beta electrons
       nuclear repulsion energy        13.2846914019 Hartrees.
 NAtoms=    5 NActive=    5 NUniq=    5 SFac= 1.00D+00 NAtFMM=   60 NAOKFM=F Big=F
 Integral buffers will be    131072 words long.
 Raffenetti 2 integral format.
 Two-electron integral symmetry is turned on.
 One-electron integrals computed using PRISM.
 NBasis=    17 RedAO= T EigKep=  3.53D-02  NBF=    17
 NBsUse=    17 1.00D-06 EigRej= -1.00D+00 NBFU=    17
 ExpMin= 1.83D-01 ExpMax= 1.72D+02 ExpMxC= 1.72D+02 IAcc=3 IRadAn=         5 AccDes= 0.00D+00
 Harris functional with IExCor=  402 and IRadAn=       5 diagonalized for initial guess.
 HarFok:  IExCor=  402 AccDes= 0.00D+00 IRadAn=         5 IDoV= 1 UseB2=F ITyADJ=14
 ICtDFT=  3500011 ScaDFX=  1.000000  1.000000  1.000000  1.000000
 FoFCou: FMM=F IPFlag=           0 FMFlag=      100000 FMFlg1=           0
         NFxFlg=           0 DoJE=T BraDBF=F KetDBF=T FulRan=T
         wScrn=  0.000000 ICntrl=       500 IOpCl=  0 I1Cent=   200000004 NGrid=           0
         NMat0=    1 NMatS0=      1 NMatT0=    0 NMatD0=    1 NMtDS0=    0 NMtDT0=    0
 Petite list used in FoFCou.
 Keep R1 ints in memory in canonical form, NReq=55236554.
 Requested convergence on RMS density matrix=1.00D-08 within 128 cycles.
 Requested convergence on MAX density matrix=1.00D-06.
 Requested convergence on             energy=1.00D-06.
 No special actions if energy rises.
 Integral accuracy reduced to 1.0D-05 until final iterations.
 Initial convergence to 1.0D-05 achieved.  Increase integral accuracy.
 SCF Done:  E(RB3LYP) =  -40.2768871143     A.U. after    9 cycles
            NFock=  9  Conv=0.51D-08     -V/T= 2.0115

 **********************************************************************

            Population analysis using the SCF Density.

 **********************************************************************

 Orbital symmetries:
       Occupied  (A) (A) (A) (A) (A)
       Virtual   (A) (A) (A) (A) (A) (A) (A) (A) (A) (A) (A) (A)
 The electronic state is 1-A.
 Alpha  occ. eigenvalues --  -10.10586  -0.69459  -0.42323  -0.38750  -0.34244
 Alpha virt. eigenvalues --    0.13137   0.16933   0.18762   0.20358   0.68126
 Alpha virt. eigenvalues --    0.72502   0.76284   0.97535   1.01416   1.04092
 Alpha virt. eigenvalues --    1.12307   1.65703
          Condensed to atoms (all electrons):
               1          2          3          4          5
     1  C    5.292204   0.373008   0.354890   0.357456   0.374781
     2  H    0.373008   0.508446  -0.018910  -0.030662  -0.022459
     3  H    0.354890  -0.018910   0.577199  -0.070856  -0.017973
     4  H    0.357456  -0.030662  -0.070856   0.553517  -0.015420
     5  H    0.374781  -0.022459  -0.017973  -0.015420   0.500922
 Mulliken charges:
               1
     1  C   -0.752339
     2  H    0.190576
     3  H    0.175650
     4  H    0.205964
     5  H    0.180149
 Sum of Mulliken charges =   0.00000
 Mulliken charges with hydrogens summed into heavy atoms:
               1
     1  C    0.000000
 Electronic spatial extent (au):  <R**2>=             35.9810
 Charge=              0.0000 electrons
 Dipole moment (field-independent basis, Debye):
    X=             -0.2354    Y=             -0.0205    Z=              0.0778  Tot=              0.2488
 Quadrupole moment (field-independent basis, Debye-Ang):
   XX=             -7.5459   YY=             -8.1329   ZZ=             -9.2384
   XY=              0.0173   XZ=             -0.1147   YZ=             -0.0571
 Traceless Quadrupole moment (field-independent basis, Debye-Ang):
   XX=              0.7598   YY=              0.1729   ZZ=             -0.9327
   XY=              0.0173   XZ=             -0.1147   YZ=             -0.0571
 Octapole moment (field-independent basis, Debye-Ang**2):
  XXX=             -0.2490  YYY=              0.8379  ZZZ=              0.2725  XYY=              0.3260
  XXY=             -0.7537  XXZ=              0.1154  XZZ=             -0.4505  YZZ=             -0.0305
  YYZ=             -0.1072  XYZ=             -0.1396
 Hexadecapole moment (field-independent basis, Debye-Ang**3):
 XXXX=            -15.8649 YYYY=            -14.8950 ZZZZ=            -14.1854 XXXY=             -0.4237
 XXXZ=             -0.1136 YYYX=              0.1631 YYYZ=             -0.2823 ZZZX=             -0.2801
 ZZZY=             -0.0111 XXYY=             -5.0788 XXZZ=             -4.9221 YYZZ=             -5.1049
 XXYZ=              0.0588 YYXZ=             -0.0226 ZZXY=              0.1707
 N-N= 1.328469140189D+01 E-N=-1.190379590921D+02  KE= 3.981986748162D+01
 Calling FoFJK, ICntrl=      2127 FMM=F ISym2X=0 I1Cent= 0 IOpClX= 0 NMat=1 NMatS=1 NMatT=0.
 ***** Axes restored to original set *****
 -------------------------------------------------------------------
 Center     Atomic                   Forces (Hartrees/Bohr)
 Number     Number              X              Y              Z
 -------------------------------------------------------------------
      1        6           0.006541885    0.001060280   -0.036702728
      2        1           0.009206279    0.008105352   -0.006725122
      3        1          -0.021800375   -0.001128030   -0.036660467
      4        1          -0.014276969    0.022252269    0.060502696
      5        1           0.020329180   -0.030289870    0.019585621
 -------------------------------------------------------------------
 Cartesian Forces:  Max     0.060502696 RMS     0.025141107

 GradGradGradGradGradGradGradGradGradGradGradGradGradGradGradGradGradGrad
 Berny optimization.
 Search for a local minimum.
 Step number   1 out of a maximum of    2
 All quantities printed in internal units (Hartrees-Bohrs-Radians)
 Second derivative matrix not updated -- first step.
 The second derivative matrix:
                          X1        Y1        Z1        X2        Y2
           X1           0.70568
           Y1           0.00433   0.65911
           Z1           0.10995  -0.06333   0.58055
           X2          -0.18295  -0.10777  -0.01595   0.17383
           Y2          -0.12114  -0.23929   0.00238   0.12858   0.22160
           Z2          -0.01117   0.00868  -0.06447   0.01482  -0.00068
           X3          -0.27338   0.04953   0.08585  -0.00767   0.00620
           Y3           0.05268  -0.09510  -0.01225  -0.02412   0.01955
           Z3           0.07484  -0.00840  -0.08357  -0.00490   0.00392
           X4          -0.13422  -0.00250  -0.14536  -0.00454   0.00461
           Y4           0.00031  -0.09479   0.00817  -0.00840   0.00821
           Z4          -0.13803   0.00237  -0.33897   0.00223  -0.00227
           X5          -0.11512   0.05641  -0.03449   0.02132  -0.01826
           Y5           0.06382  -0.22994   0.06503   0.01170  -0.01007
           Z5          -0.03559   0.06068  -0.09354   0.00380  -0.00336
                          Z2        X3        Y3        Z3        X4
           Z2           0.04594
           X3           0.00481   0.26927
           Y3           0.01357  -0.05292   0.07099
           Z3           0.00403  -0.08541   0.01464   0.08323
           X4          -0.02004   0.01218   0.00070   0.03128   0.12776
           Y4          -0.02903  -0.00298   0.00010  -0.00781   0.00082
           Z4           0.00988  -0.00608  -0.00035  -0.01561   0.14125
           X5           0.01157  -0.00039   0.02366  -0.01582  -0.00118
           Y5           0.00746   0.00017   0.00446  -0.00235  -0.00363
           Z5           0.00463   0.00083  -0.01561   0.01192  -0.00714
                          Y4        Z4        X5        Y5        Z5
           Y4           0.06862
           Z4          -0.00162   0.34104
           X5           0.01025   0.00062   0.09537
           Y5           0.01787   0.00187  -0.07207   0.21767
           Z5           0.03030   0.00366   0.03811  -0.07201   0.07333
 ITU=  0
     Eigenvalues ---    0.09945   0.10873   0.12412   0.13239   0.15833
     Eigenvalues ---    0.31783   0.66905   0.78412   0.93032
 Quadratic step=6.880D-01 exceeds max=3.000D-01 adjusted using Lamda=-1.450D-01.
 Angle between NR and scaled steps=   7.19 degrees.
 Angle between quadratic step and forces=  27.81 degrees.
 Linear search not attempted -- first point.
 B after Tr=     0.012599   -0.000208   -0.007321
         Rot=    1.000000    0.000026    0.000091    0.000038 Ang=   0.01 deg.
 Variable       Old X    -DE/DX   Delta X   Delta X   Delta X     New X
                                 (Linear)    (Quad)   (Total)
    X1       50.46910   0.00654   0.00000   0.03421   0.04414  50.51324
    Y1       51.11180   0.00106   0.00000  -0.00738  -0.00952  51.10228
    Z1       36.15178  -0.03670   0.00000  -0.00292  -0.00378  36.14801
    X2       49.12967   0.00921   0.00000   0.02742   0.03725  49.16691
    Y2       49.50534   0.00811   0.00000   0.02447   0.02243  49.52778
    Z2       36.08545  -0.00673   0.00000  -0.03585  -0.03688  36.04858
    X3       52.39851  -0.02180   0.00000  -0.06108  -0.05102  52.34749
    Y3       50.64844  -0.00113   0.00000  -0.01633  -0.01865  50.62979
    Z3       35.41082  -0.03666   0.00000  -0.16591  -0.16642  35.24441
    X4       51.34613  -0.01428   0.00000  -0.10289  -0.09331  51.25282
    Y4       51.10556   0.02225   0.00000   0.08870   0.08661  51.19217
    Z4       37.91282   0.06050   0.00000   0.15700   0.15627  38.06909
    X5       49.60040   0.02033   0.00000   0.05275   0.06294  49.66334
    Y5       52.95126  -0.03029   0.00000  -0.07876  -0.08087  52.87039
    Z5       35.36093   0.01959   0.00000   0.05190   0.05080  35.41173
         Item               Value     Threshold  Converged?
 Maximum Force            0.060503     0.000450     NO 
 RMS     Force            0.025141     0.000300     NO 
 Maximum Displacement     0.166417     0.001800     NO 
 RMS     Displacement     0.077313     0.001200     NO 
 Predicted change in Energy=-1.947178D-02
 GradGradGradGradGradGradGradGradGradGradGradGradGradGradGradGradGradGrad

 1\1\GINC-H11R13\Force\RB3LYP\3-21G*\C1H4\ACKGYDJ0BD\08-Jul-2026\0\\#fo
 rce b3lyp/3-21G* Geom=PrintInputOrient\\Generated by MDDatasetMaker (A
 uthor: Jinzhe Zeng)\\0,1\C,26.7071,27.0472,19.1307\H,25.9983,26.1971,1
 9.0956\H,27.7281,26.802,18.7386\H,27.1712,27.0439,20.0626\H,26.2474,28
 .0206,18.7122\\Version=EM64L-G16RevB.01\State=1-A\HF=-40.2768871\RMSD=
 5.079e-09\RMSF=2.514e-02\Dipole=0.0736373,-0.024657,0.0595726\Quadrupo
 le=0.3569044,0.1074306,-0.4643351,-0.0636203,0.3649278,-0.3209468\PG=C
 01 [X(C1H4)]\\@


 The most important thing in communication is to hear what isn't being said.
 -- Peter F. Drucker
 Job cpu time:       0 days  0 hours  2 minutes 40.7 seconds.
 Elapsed time:       0 days  0 hours  0 minutes  3.3 seconds.
 File lengths (MBytes):  RWF=      6 Int=      0 D2E=      0 Chk=      1 Scr=      1
 Normal termination of Gaussian 16 at Wed Jul  8 17:32:21 2026.
