 Entering Gaussian System, Link 0=g16
 Input=data_C1111_03.gjf
 Output=data_C1111_03.log
 Initial command:
 /work/home/ackgydj0bd/apprepo/gaussian/16b.01-none_v1.3/app/g16/l1.exe "/work/home/ackgydj0bd/apprepo/gaussian/16b.01-none_v1.3/app/g16/scratch/Gau-26975.inp" -scrdir="/work/home/ackgydj0bd/apprepo/gaussian/16b.01-none_v1.3/app/g16/scratch/"
 Entering Link 1 = /work/home/ackgydj0bd/apprepo/gaussian/16b.01-none_v1.3/app/g16/l1.exe PID=     26976.
  
 Copyright (c) 1988-2017, Gaussian, Inc.  All Rights Reserved.
  
 This is part of the Gaussian(R) 16 program.  It is based on
 the Gaussian(R) 09 system (copyright 2009, Gaussian, Inc.),
 the Gaussian(R) 03 system (copyright 2003, Gaussian, Inc.),
 the Gaussian(R) 98 system (copyright 1998, Gaussian, Inc.),
 the Gaussian(R) 94 system (copyright 1995, Gaussian, Inc.),
 the Gaussian 92(TM) system (copyright 1992, Gaussian, Inc.),
 the Gaussian 90(TM) system (copyright 1990, Gaussian, Inc.),
 the Gaussian 88(TM) system (copyright 1988, Gaussian, Inc.),
 the Gaussian 86(TM) system (copyright 1986, Carnegie Mellon
 University), and the Gaussian 82(TM) system (copyright 1983,
 Carnegie Mellon University). Gaussian is a federally registered
 trademark of Gaussian, Inc.
  
 This software contains proprietary and confidential information,
 including trade secrets, belonging to Gaussian, Inc.
  
 This software is provided under written license and may be
 used, copied, transmitted, or stored only in accord with that
 written license.
  
 The following legend is applicable only to US Government
 contracts under FAR:
  
                    RESTRICTED RIGHTS LEGEND
  
 Use, reproduction and disclosure by the US Government is
 subject to restrictions as set forth in subparagraphs (a)
 and (c) of the Commercial Computer Software - Restricted
 Rights clause in FAR 52.227-19.
  
 Gaussian, Inc.
 340 Quinnipiac St., Bldg. 40, Wallingford CT 06492
  
  
 ---------------------------------------------------------------
 Warning -- This program may not be used in any manner that
 competes with the business of Gaussian, Inc. or will provide
 assistance to any competitor of Gaussian, Inc.  The licensee
 of this program is prohibited from giving any competitor of
 Gaussian, Inc. access to this program.  By using this program,
 the user acknowledges that Gaussian, Inc. is engaged in the
 business of creating and licensing software in the field of
 computational chemistry and represents and warrants to the
 licensee that it is not a competitor of Gaussian, Inc. and that
 it will not use this program in any manner prohibited above.
 ---------------------------------------------------------------
  

 Cite this work as:
 Gaussian 16, Revision B.01,
 M. J. Frisch, G. W. Trucks, H. B. Schlegel, G. E. Scuseria, 
 M. A. Robb, J. R. Cheeseman, G. Scalmani, V. Barone, 
 G. A. Petersson, H. Nakatsuji, X. Li, M. Caricato, A. V. Marenich, 
 J. Bloino, B. G. Janesko, R. Gomperts, B. Mennucci, H. P. Hratchian, 
 J. V. Ortiz, A. F. Izmaylov, J. L. Sonnenberg, D. Williams-Young, 
 F. Ding, F. Lipparini, F. Egidi, J. Goings, B. Peng, A. Petrone, 
 T. Henderson, D. Ranasinghe, V. G. Zakrzewski, J. Gao, N. Rega, 
 G. Zheng, W. Liang, M. Hada, M. Ehara, K. Toyota, R. Fukuda, 
 J. Hasegawa, M. Ishida, T. Nakajima, Y. Honda, O. Kitao, H. Nakai, 
 T. Vreven, K. Throssell, J. A. Montgomery, Jr., J. E. Peralta, 
 F. Ogliaro, M. J. Bearpark, J. J. Heyd, E. N. Brothers, K. N. Kudin, 
 V. N. Staroverov, T. A. Keith, R. Kobayashi, J. Normand, 
 K. Raghavachari, A. P. Rendell, J. C. Burant, S. S. Iyengar, 
 J. Tomasi, M. Cossi, J. M. Millam, M. Klene, C. Adamo, R. Cammi, 
 J. W. Ochterski, R. L. Martin, K. Morokuma, O. Farkas, 
 J. B. Foresman, and D. J. Fox, Gaussian, Inc., Wallingford CT, 2016.
 
 ******************************************
 Gaussian 16:  EM64L-G16RevB.01 20-Dec-2017
                 8-Jul-2026 
 ******************************************
 %nproc=64
 Will use up to   64 processors via shared memory.
 %mem=128GB
 -----------------------------------------
 #force b3lyp/3-21G* Geom=PrintInputOrient
 -----------------------------------------
 1/10=7,30=1,38=1/1,3;
 2/9=2000,12=2,17=6,18=5,40=1/2;
 3/5=5,7=1,11=2,25=1,30=1,71=1,74=-5/1,2,3;
 4//1;
 5/5=2,38=5/2;
 6/7=2,8=2,9=2,10=2,28=1/1;
 7/29=1/1,2,3,16;
 1/10=7,30=1/3;
 99//99;
 -------------------------------------------------
 Generated by MDDatasetMaker (Author: Jinzhe Zeng)
 -------------------------------------------------
 Symbolic Z-matrix:
 Charge =  0 Multiplicity = 1
 C                     23.3643   28.3074   0.05151 
 H                     24.2938   28.94536   0.33533 
 H                     23.5721   27.3497  -0.46431 
 H                     22.7154   28.2088   0.92474 
 H                     22.9737   29.06897  -0.7557 
 

 GradGradGradGradGradGradGradGradGradGradGradGradGradGradGradGradGradGrad
 Berny optimization.
 Initialization pass.
 Trust Radius=3.00D-01 FncErr=1.00D-07 GrdErr=1.00D-07 EigMax=2.50D+02 EigMin=1.00D-04
 Number of steps in this run=      2 maximum allowed number of steps=      2.
 GradGradGradGradGradGradGradGradGradGradGradGradGradGradGradGradGradGrad

                          Input orientation:                          
 ---------------------------------------------------------------------
 Center     Atomic      Atomic             Coordinates (Angstroms)
 Number     Number       Type             X           Y           Z
 ---------------------------------------------------------------------
      1          6           0       23.364300   28.307400    0.051510
      2          1           0       24.293800   28.945360    0.335330
      3          1           0       23.572100   27.349700   -0.464310
      4          1           0       22.715400   28.208800    0.924740
      5          1           0       22.973700   29.068970   -0.755700
 ---------------------------------------------------------------------
                    Distance matrix (angstroms):
                    1          2          3          4          5
     1  C    0.000000
     2  H    1.162548   0.000000
     3  H    1.107448   1.925203   0.000000
     4  H    1.092394   1.838823   1.844301   0.000000
     5  H    1.176497   1.717059   1.843605   1.905384   0.000000
 Stoichiometry    CH4
 Framework group  C1[X(CH4)]
 Deg. of freedom     9
 Full point group                 C1      NOp   1
 Largest Abelian subgroup         C1      NOp   1
 Largest concise Abelian subgroup C1      NOp   1
                         Standard orientation:                         
 ---------------------------------------------------------------------
 Center     Atomic      Atomic             Coordinates (Angstroms)
 Number     Number       Type             X           Y           Z
 ---------------------------------------------------------------------
      1          6           0        0.038517    0.006689   -0.004574
      2          1           0       -0.789437    0.335108   -0.751668
      3          1           0        0.715222   -0.797772   -0.352932
      4          1           0        0.558012    0.892171    0.368748
      5          1           0       -0.714897   -0.469638    0.763297
 ---------------------------------------------------------------------
 Rotational constants (GHZ):         157.9852318         148.3599482         134.1750028
 Standard basis: 3-21G* (6D, 7F)
 There are    17 symmetry adapted cartesian basis functions of A   symmetry.
 There are    17 symmetry adapted basis functions of A   symmetry.
    17 basis functions,    27 primitive gaussians,    17 cartesian basis functions
     5 alpha electrons        5 beta electrons
       nuclear repulsion energy        12.9259211906 Hartrees.
 NAtoms=    5 NActive=    5 NUniq=    5 SFac= 1.00D+00 NAtFMM=   60 NAOKFM=F Big=F
 Integral buffers will be    131072 words long.
 Raffenetti 2 integral format.
 Two-electron integral symmetry is turned on.
 One-electron integrals computed using PRISM.
 NBasis=    17 RedAO= T EigKep=  3.92D-02  NBF=    17
 NBsUse=    17 1.00D-06 EigRej= -1.00D+00 NBFU=    17
 ExpMin= 1.83D-01 ExpMax= 1.72D+02 ExpMxC= 1.72D+02 IAcc=3 IRadAn=         5 AccDes= 0.00D+00
 Harris functional with IExCor=  402 and IRadAn=       5 diagonalized for initial guess.
 HarFok:  IExCor=  402 AccDes= 0.00D+00 IRadAn=         5 IDoV= 1 UseB2=F ITyADJ=14
 ICtDFT=  3500011 ScaDFX=  1.000000  1.000000  1.000000  1.000000
 FoFCou: FMM=F IPFlag=           0 FMFlag=      100000 FMFlg1=           0
         NFxFlg=           0 DoJE=T BraDBF=F KetDBF=T FulRan=T
         wScrn=  0.000000 ICntrl=       500 IOpCl=  0 I1Cent=   200000004 NGrid=           0
         NMat0=    1 NMatS0=      1 NMatT0=    0 NMatD0=    1 NMtDS0=    0 NMtDT0=    0
 Petite list used in FoFCou.
 Keep R1 ints in memory in canonical form, NReq=55236554.
 Requested convergence on RMS density matrix=1.00D-08 within 128 cycles.
 Requested convergence on MAX density matrix=1.00D-06.
 Requested convergence on             energy=1.00D-06.
 No special actions if energy rises.
 Integral accuracy reduced to 1.0D-05 until final iterations.
 Initial convergence to 1.0D-05 achieved.  Increase integral accuracy.
 SCF Done:  E(RB3LYP) =  -40.2892072772     A.U. after    9 cycles
            NFock=  9  Conv=0.22D-08     -V/T= 2.0153

 **********************************************************************

            Population analysis using the SCF Density.

 **********************************************************************

 Orbital symmetries:
       Occupied  (A) (A) (A) (A) (A)
       Virtual   (A) (A) (A) (A) (A) (A) (A) (A) (A) (A) (A) (A)
 The electronic state is 1-A.
 Alpha  occ. eigenvalues --  -10.11703  -0.67934  -0.39929  -0.39824  -0.34767
 Alpha virt. eigenvalues --    0.13016   0.15316   0.18759   0.19452   0.71135
 Alpha virt. eigenvalues --    0.73560   0.74216   0.98268   0.98943   1.03168
 Alpha virt. eigenvalues --    1.05335   1.67256
          Condensed to atoms (all electrons):
               1          2          3          4          5
     1  C    5.284715   0.354810   0.369116   0.369825   0.351670
     2  H    0.354810   0.555076  -0.017289  -0.025645  -0.040398
     3  H    0.369116  -0.017289   0.505481  -0.024376  -0.025865
     4  H    0.369825  -0.025645  -0.024376   0.501903  -0.018540
     5  H    0.351670  -0.040398  -0.025865  -0.018540   0.566208
 Mulliken charges:
               1
     1  C   -0.730137
     2  H    0.173445
     3  H    0.192933
     4  H    0.196833
     5  H    0.166926
 Sum of Mulliken charges =   0.00000
 Mulliken charges with hydrogens summed into heavy atoms:
               1
     1  C    0.000000
 Electronic spatial extent (au):  <R**2>=             37.0114
 Charge=              0.0000 electrons
 Dipole moment (field-independent basis, Debye):
    X=             -0.0731    Y=             -0.0040    Z=              0.0115  Tot=              0.0741
 Quadrupole moment (field-independent basis, Debye-Ang):
   XX=             -8.0044   YY=             -8.1818   ZZ=             -8.9073
   XY=             -0.0089   XZ=              0.0206   YZ=              0.1365
 Traceless Quadrupole moment (field-independent basis, Debye-Ang):
   XX=              0.3601   YY=              0.1827   ZZ=             -0.5428
   XY=             -0.0089   XZ=              0.0206   YZ=              0.1365
 Octapole moment (field-independent basis, Debye-Ang**2):
  XXX=             -0.2052  YYY=              0.1683  ZZZ=              0.0177  XYY=              0.6299
  XXY=             -0.1237  XXZ=             -0.1162  XZZ=             -0.3710  YZZ=             -0.0083
  YYZ=              0.1145  XYZ=              0.6145
 Hexadecapole moment (field-independent basis, Debye-Ang**3):
 XXXX=            -16.6487 YYYY=            -15.5067 ZZZZ=            -15.7760 XXXY=             -0.1576
 XXXZ=              0.0728 YYYX=              0.0636 YYYZ=              0.6289 ZZZX=              0.0536
 ZZZY=             -0.0171 XXYY=             -4.9246 XXZZ=             -4.9185 YYZZ=             -5.1398
 XXYZ=             -0.0152 YYXZ=             -0.0422 ZZXY=              0.0416
 N-N= 1.292592119058D+01 E-N=-1.182516900909D+02  KE= 3.968165632557D+01
 Calling FoFJK, ICntrl=      2127 FMM=F ISym2X=0 I1Cent= 0 IOpClX= 0 NMat=1 NMatS=1 NMatT=0.
 ***** Axes restored to original set *****
 -------------------------------------------------------------------
 Center     Atomic                   Forces (Hartrees/Bohr)
 Number     Number              X              Y              Z
 -------------------------------------------------------------------
      1        6           0.021163086    0.057119154   -0.031747350
      2        1          -0.017894760   -0.035518359   -0.000309530
      3        1           0.003907901    0.010087900    0.010421858
      4        1          -0.002243895    0.000593492   -0.005806419
      5        1          -0.004932332   -0.032282187    0.027441441
 -------------------------------------------------------------------
 Cartesian Forces:  Max     0.057119154 RMS     0.023642469

 GradGradGradGradGradGradGradGradGradGradGradGradGradGradGradGradGradGrad
 Berny optimization.
 Search for a local minimum.
 Step number   1 out of a maximum of    2
 All quantities printed in internal units (Hartrees-Bohrs-Radians)
 Second derivative matrix not updated -- first step.
 The second derivative matrix:
                          X1        Y1        Z1        X2        Y2
           X1           0.53320
           Y1           0.02241   0.63488
           Z1          -0.09167   0.03454   0.62101
           X2          -0.20116  -0.09120  -0.03428   0.19504
           Y2          -0.09483  -0.12768  -0.03744   0.09978   0.11594
           Z2          -0.03241  -0.03502  -0.07970   0.04133   0.03334
           X3          -0.08507   0.03702   0.03356   0.02062  -0.02410
           Y3           0.03489  -0.26565  -0.09767   0.00383  -0.00430
           Z3           0.03337  -0.10219  -0.13386   0.00119  -0.00173
           X4          -0.16588  -0.01627   0.13228  -0.00766   0.00158
           Y4          -0.01291  -0.09298   0.01194  -0.00704   0.00238
           Z4           0.13193   0.01641  -0.24573  -0.00648   0.00145
           X5          -0.08110   0.04804  -0.03989  -0.00685   0.01758
           Y5           0.05044  -0.14858   0.08863  -0.00536   0.01366
           Z5          -0.04122   0.08625  -0.16171  -0.00175   0.00438
                          Z2        X3        Y3        Z3        X4
           Z2           0.06585
           X3          -0.01335   0.06255
           Y3          -0.00290  -0.04093   0.26179
           Z3           0.00000  -0.03124   0.10777   0.11603
           X4           0.02151   0.00218   0.00083  -0.00066   0.15331
           Y4           0.01771   0.02065   0.01788  -0.02488   0.01777
           Z4           0.01799   0.00395   0.00263  -0.00330  -0.14072
           X5          -0.01708  -0.00028   0.00137  -0.00266   0.01804
           Y5          -0.01314   0.00736  -0.00973   0.02103  -0.00391
           Z5          -0.00413   0.00708  -0.00984   0.02113  -0.01242
                          Y4        Z4        X5        Y5        Z5
           Y4           0.06804
           Z4          -0.01811   0.23876
           X5          -0.01847   0.01132   0.07019
           Y5           0.00467  -0.00238  -0.04853   0.13997
           Z5           0.01335  -0.00772   0.04831  -0.09414   0.15244
 ITU=  0
     Eigenvalues ---    0.09410   0.10086   0.11776   0.13342   0.13986
     Eigenvalues ---    0.30621   0.58163   0.75609   0.82210
 Quadratic step=3.482D-01 exceeds max=3.000D-01 adjusted using Lamda=-1.960D-02.
 Angle between NR and scaled steps=   3.57 degrees.
 Angle between quadratic step and forces=  44.38 degrees.
 Linear search not attempted -- first point.
 B after Tr=     0.006385    0.021524   -0.011610
         Rot=    1.000000   -0.000007    0.000001   -0.000001 Ang=   0.00 deg.
 Variable       Old X    -DE/DX   Delta X   Delta X   Delta X     New X
                                 (Linear)    (Quad)   (Total)
    X1       44.15213   0.02116   0.00000   0.02148   0.02771  44.17984
    Y1       53.49323   0.05712   0.00000   0.07469   0.09635  53.58958
    Z1        0.09734  -0.03175   0.00000  -0.03706  -0.04780   0.04954
    X2       45.90863  -0.01789   0.00000   0.02286   0.02908  45.93771
    Y2       54.69880  -0.03552   0.00000  -0.17896  -0.15731  54.54149
    Z2        0.63368  -0.00031   0.00000   0.04310   0.03237   0.66605
    X3       44.54481   0.00391   0.00000   0.05431   0.06055  44.60536
    Y3       51.68344   0.01009   0.00000   0.07157   0.09324  51.77668
    Z3       -0.87742   0.01042   0.00000   0.05473   0.04396  -0.83346
    X4       42.92588  -0.00224   0.00000  -0.00653  -0.00031  42.92558
    Y4       53.30691   0.00059   0.00000   0.03369   0.05532  53.36222
    Z4        1.74751  -0.00581   0.00000  -0.06998  -0.08073   1.66677
    X5       43.41400  -0.00493   0.00000  -0.12325  -0.11703  43.29697
    Y5       54.93239  -0.03228   0.00000  -0.10926  -0.08759  54.84480
    Z5       -1.42807   0.02744   0.00000   0.06293   0.05220  -1.37586
         Item               Value     Threshold  Converged?
 Maximum Force            0.057119     0.000450     NO 
 RMS     Force            0.023642     0.000300     NO 
 Maximum Displacement     0.157311     0.001800     NO 
 RMS     Displacement     0.076131     0.001200     NO 
 Predicted change in Energy=-1.070206D-02
 GradGradGradGradGradGradGradGradGradGradGradGradGradGradGradGradGradGrad

 1\1\GINC-H11R13\Force\RB3LYP\3-21G*\C1H4\ACKGYDJ0BD\08-Jul-2026\0\\#fo
 rce b3lyp/3-21G* Geom=PrintInputOrient\\Generated by MDDatasetMaker (A
 uthor: Jinzhe Zeng)\\0,1\C,23.3643,28.3074,0.05151\H,24.2938,28.94536,
 0.33533\H,23.5721,27.3497,-0.46431\H,22.7154,28.2088,0.92474\H,22.9737
 ,29.06897,-0.7557\\Version=EM64L-G16RevB.01\State=1-A\HF=-40.2892073\R
 MSD=2.241e-09\RMSF=2.364e-02\Dipole=0.0057834,0.0269687,-0.0094369\Qua
 drupole=-0.2795188,0.2138013,0.0657175,0.1631527,-0.212163,0.0367444\P
 G=C01 [X(C1H4)]\\@


 IT IS A SIMPLE TASK TO MAKE THINGS COMPLEX,
 BUT A COMPLEX TASK TO MAKE THEM SIMPLE.
 Job cpu time:       0 days  0 hours  2 minutes 40.1 seconds.
 Elapsed time:       0 days  0 hours  0 minutes  3.2 seconds.
 File lengths (MBytes):  RWF=      6 Int=      0 D2E=      0 Chk=      1 Scr=      1
 Normal termination of Gaussian 16 at Wed Jul  8 17:31:35 2026.
