 Entering Gaussian System, Link 0=g16
 Input=data_H1_08.gjf
 Output=data_H1_08.log
 Initial command:
 /work/home/ackgydj0bd/apprepo/gaussian/16b.01-none_v1.3/app/g16/l1.exe "/work/home/ackgydj0bd/apprepo/gaussian/16b.01-none_v1.3/app/g16/scratch/Gau-43044.inp" -scrdir="/work/home/ackgydj0bd/apprepo/gaussian/16b.01-none_v1.3/app/g16/scratch/"
 Entering Link 1 = /work/home/ackgydj0bd/apprepo/gaussian/16b.01-none_v1.3/app/g16/l1.exe PID=     43045.
  
 Copyright (c) 1988-2017, Gaussian, Inc.  All Rights Reserved.
  
 This is part of the Gaussian(R) 16 program.  It is based on
 the Gaussian(R) 09 system (copyright 2009, Gaussian, Inc.),
 the Gaussian(R) 03 system (copyright 2003, Gaussian, Inc.),
 the Gaussian(R) 98 system (copyright 1998, Gaussian, Inc.),
 the Gaussian(R) 94 system (copyright 1995, Gaussian, Inc.),
 the Gaussian 92(TM) system (copyright 1992, Gaussian, Inc.),
 the Gaussian 90(TM) system (copyright 1990, Gaussian, Inc.),
 the Gaussian 88(TM) system (copyright 1988, Gaussian, Inc.),
 the Gaussian 86(TM) system (copyright 1986, Carnegie Mellon
 University), and the Gaussian 82(TM) system (copyright 1983,
 Carnegie Mellon University). Gaussian is a federally registered
 trademark of Gaussian, Inc.
  
 This software contains proprietary and confidential information,
 including trade secrets, belonging to Gaussian, Inc.
  
 This software is provided under written license and may be
 used, copied, transmitted, or stored only in accord with that
 written license.
  
 The following legend is applicable only to US Government
 contracts under FAR:
  
                    RESTRICTED RIGHTS LEGEND
  
 Use, reproduction and disclosure by the US Government is
 subject to restrictions as set forth in subparagraphs (a)
 and (c) of the Commercial Computer Software - Restricted
 Rights clause in FAR 52.227-19.
  
 Gaussian, Inc.
 340 Quinnipiac St., Bldg. 40, Wallingford CT 06492
  
  
 ---------------------------------------------------------------
 Warning -- This program may not be used in any manner that
 competes with the business of Gaussian, Inc. or will provide
 assistance to any competitor of Gaussian, Inc.  The licensee
 of this program is prohibited from giving any competitor of
 Gaussian, Inc. access to this program.  By using this program,
 the user acknowledges that Gaussian, Inc. is engaged in the
 business of creating and licensing software in the field of
 computational chemistry and represents and warrants to the
 licensee that it is not a competitor of Gaussian, Inc. and that
 it will not use this program in any manner prohibited above.
 ---------------------------------------------------------------
  

 Cite this work as:
 Gaussian 16, Revision B.01,
 M. J. Frisch, G. W. Trucks, H. B. Schlegel, G. E. Scuseria, 
 M. A. Robb, J. R. Cheeseman, G. Scalmani, V. Barone, 
 G. A. Petersson, H. Nakatsuji, X. Li, M. Caricato, A. V. Marenich, 
 J. Bloino, B. G. Janesko, R. Gomperts, B. Mennucci, H. P. Hratchian, 
 J. V. Ortiz, A. F. Izmaylov, J. L. Sonnenberg, D. Williams-Young, 
 F. Ding, F. Lipparini, F. Egidi, J. Goings, B. Peng, A. Petrone, 
 T. Henderson, D. Ranasinghe, V. G. Zakrzewski, J. Gao, N. Rega, 
 G. Zheng, W. Liang, M. Hada, M. Ehara, K. Toyota, R. Fukuda, 
 J. Hasegawa, M. Ishida, T. Nakajima, Y. Honda, O. Kitao, H. Nakai, 
 T. Vreven, K. Throssell, J. A. Montgomery, Jr., J. E. Peralta, 
 F. Ogliaro, M. J. Bearpark, J. J. Heyd, E. N. Brothers, K. N. Kudin, 
 V. N. Staroverov, T. A. Keith, R. Kobayashi, J. Normand, 
 K. Raghavachari, A. P. Rendell, J. C. Burant, S. S. Iyengar, 
 J. Tomasi, M. Cossi, J. M. Millam, M. Klene, C. Adamo, R. Cammi, 
 J. W. Ochterski, R. L. Martin, K. Morokuma, O. Farkas, 
 J. B. Foresman, and D. J. Fox, Gaussian, Inc., Wallingford CT, 2016.
 
 ******************************************
 Gaussian 16:  EM64L-G16RevB.01 20-Dec-2017
                 8-Jul-2026 
 ******************************************
 %nproc=64
 Will use up to   64 processors via shared memory.
 %mem=128GB
 -----------------------------------------
 #force b3lyp/3-21G* Geom=PrintInputOrient
 -----------------------------------------
 1/10=7,30=1,38=1/1,3;
 2/9=2000,12=2,17=6,18=5,40=1/2;
 3/5=5,7=1,11=2,25=1,30=1,71=1,74=-5/1,2,3;
 4//1;
 5/5=2,38=5/2;
 6/7=2,8=2,9=2,10=2,28=1/1;
 7/29=1/1,2,3,16;
 1/10=7,30=1/3;
 99//99;
 -------------------------------------------------
 Generated by MDDatasetMaker (Author: Jinzhe Zeng)
 -------------------------------------------------
 Symbolic Z-matrix:
 Charge =  0 Multiplicity = 1
 C                     28.80939   16.9456   23.6994 
 H                     29.8605   16.8196   24.2289 
 H                     28.8848   16.2508   22.8181 
 H                     28.94523   18.019    23.52 
 H                     27.8578   16.7907   24.2636 
 

 GradGradGradGradGradGradGradGradGradGradGradGradGradGradGradGradGradGrad
 Berny optimization.
 Initialization pass.
 Trust Radius=3.00D-01 FncErr=1.00D-07 GrdErr=1.00D-07 EigMax=2.50D+02 EigMin=1.00D-04
 Number of steps in this run=      2 maximum allowed number of steps=      2.
 GradGradGradGradGradGradGradGradGradGradGradGradGradGradGradGradGradGrad

                          Input orientation:                          
 ---------------------------------------------------------------------
 Center     Atomic      Atomic             Coordinates (Angstroms)
 Number     Number       Type             X           Y           Z
 ---------------------------------------------------------------------
      1          6           0       28.809390   16.945600   23.699400
      2          1           0       29.860500   16.819600   24.228900
      3          1           0       28.884800   16.250800   22.818100
      4          1           0       28.945230   18.019000   23.520000
      5          1           0       27.857800   16.790700   24.263600
 ---------------------------------------------------------------------
                    Distance matrix (angstroms):
                    1          2          3          4          5
     1  C    0.000000
     2  H    1.183672   0.000000
     3  H    1.124777   1.807175   0.000000
     4  H    1.096734   1.666979   1.903378   0.000000
     5  H    1.117067   2.003209   1.853562   1.801157   0.000000
 Stoichiometry    CH4
 Framework group  C1[X(CH4)]
 Deg. of freedom     9
 Full point group                 C1      NOp   1
 Largest Abelian subgroup         C1      NOp   1
 Largest concise Abelian subgroup C1      NOp   1
                         Standard orientation:                         
 ---------------------------------------------------------------------
 Center     Atomic      Atomic             Coordinates (Angstroms)
 Number     Number       Type             X           Y           Z
 ---------------------------------------------------------------------
      1          6           0       -0.032569    0.002646    0.002101
      2          1           0        0.947450    0.050664   -0.659969
      3          1           0       -0.149182    1.062816    0.359260
      4          1           0        0.386333   -0.731415    0.701030
      5          1           0       -0.989189   -0.397939   -0.412926
 ---------------------------------------------------------------------
 Rotational constants (GHZ):         164.2953208         152.6690187         129.1243893
 Standard basis: 3-21G* (6D, 7F)
 There are    17 symmetry adapted cartesian basis functions of A   symmetry.
 There are    17 symmetry adapted basis functions of A   symmetry.
    17 basis functions,    27 primitive gaussians,    17 cartesian basis functions
     5 alpha electrons        5 beta electrons
       nuclear repulsion energy        12.9743042382 Hartrees.
 NAtoms=    5 NActive=    5 NUniq=    5 SFac= 1.00D+00 NAtFMM=   60 NAOKFM=F Big=F
 Integral buffers will be    131072 words long.
 Raffenetti 2 integral format.
 Two-electron integral symmetry is turned on.
 One-electron integrals computed using PRISM.
 NBasis=    17 RedAO= T EigKep=  3.90D-02  NBF=    17
 NBsUse=    17 1.00D-06 EigRej= -1.00D+00 NBFU=    17
 ExpMin= 1.83D-01 ExpMax= 1.72D+02 ExpMxC= 1.72D+02 IAcc=3 IRadAn=         5 AccDes= 0.00D+00
 Harris functional with IExCor=  402 and IRadAn=       5 diagonalized for initial guess.
 HarFok:  IExCor=  402 AccDes= 0.00D+00 IRadAn=         5 IDoV= 1 UseB2=F ITyADJ=14
 ICtDFT=  3500011 ScaDFX=  1.000000  1.000000  1.000000  1.000000
 FoFCou: FMM=F IPFlag=           0 FMFlag=      100000 FMFlg1=           0
         NFxFlg=           0 DoJE=T BraDBF=F KetDBF=T FulRan=T
         wScrn=  0.000000 ICntrl=       500 IOpCl=  0 I1Cent=   200000004 NGrid=           0
         NMat0=    1 NMatS0=      1 NMatT0=    0 NMatD0=    1 NMtDS0=    0 NMtDT0=    0
 Petite list used in FoFCou.
 Keep R1 ints in memory in canonical form, NReq=55236554.
 Requested convergence on RMS density matrix=1.00D-08 within 128 cycles.
 Requested convergence on MAX density matrix=1.00D-06.
 Requested convergence on             energy=1.00D-06.
 No special actions if energy rises.
 Integral accuracy reduced to 1.0D-05 until final iterations.
 Initial convergence to 1.0D-05 achieved.  Increase integral accuracy.
 SCF Done:  E(RB3LYP) =  -40.2857838226     A.U. after    9 cycles
            NFock=  9  Conv=0.24D-08     -V/T= 2.0148

 **********************************************************************

            Population analysis using the SCF Density.

 **********************************************************************

 Orbital symmetries:
       Occupied  (A) (A) (A) (A) (A)
       Virtual   (A) (A) (A) (A) (A) (A) (A) (A) (A) (A) (A) (A)
 The electronic state is 1-A.
 Alpha  occ. eigenvalues --  -10.11542  -0.68134  -0.40578  -0.39772  -0.34191
 Alpha virt. eigenvalues --    0.12694   0.15370   0.19006   0.19651   0.70180
 Alpha virt. eigenvalues --    0.73490   0.76073   0.97727   0.99515   1.03716
 Alpha virt. eigenvalues --    1.05640   1.66191
          Condensed to atoms (all electrons):
               1          2          3          4          5
     1  C    5.288628   0.351330   0.366060   0.359001   0.370945
     2  H    0.351330   0.571703  -0.030522  -0.045184  -0.011261
     3  H    0.366060  -0.030522   0.518375  -0.016529  -0.025101
     4  H    0.359001  -0.045184  -0.016529   0.536536  -0.028698
     5  H    0.370945  -0.011261  -0.025101  -0.028698   0.504672
 Mulliken charges:
               1
     1  C   -0.735965
     2  H    0.163933
     3  H    0.187716
     4  H    0.194873
     5  H    0.189443
 Sum of Mulliken charges =   0.00000
 Mulliken charges with hydrogens summed into heavy atoms:
               1
     1  C    0.000000
 Electronic spatial extent (au):  <R**2>=             36.8725
 Charge=              0.0000 electrons
 Dipole moment (field-independent basis, Debye):
    X=              0.0877    Y=             -0.0462    Z=              0.0582  Tot=              0.1150
 Quadrupole moment (field-independent basis, Debye-Ang):
   XX=             -7.8934   YY=             -8.1002   ZZ=             -9.0753
   XY=             -0.0142   XZ=              0.1428   YZ=              0.0116
 Traceless Quadrupole moment (field-independent basis, Debye-Ang):
   XX=              0.4629   YY=              0.2561   ZZ=             -0.7190
   XY=             -0.0142   XZ=              0.1428   YZ=              0.0116
 Octapole moment (field-independent basis, Debye-Ang**2):
  XXX=             -0.1084  YYY=              0.5376  ZZZ=              0.2357  XYY=             -0.0748
  XXY=             -0.4568  XXZ=             -0.5551  XZZ=              0.1995  YZZ=             -0.1953
  YYZ=              0.5642  XYZ=             -0.3355
 Hexadecapole moment (field-independent basis, Debye-Ang**3):
 XXXX=            -16.1249 YYYY=            -15.2112 ZZZZ=            -15.1310 XXXY=              0.4025
 XXXZ=              0.1590 YYYX=             -0.3118 YYYZ=              0.2064 ZZZX=              0.1953
 ZZZY=             -0.1830 XXYY=             -5.5551 XXZZ=             -4.9850 YYZZ=             -4.9885
 XXYZ=              0.0677 YYXZ=              0.2517 ZZXY=             -0.0812
 N-N= 1.297430423824D+01 E-N=-1.183548501960D+02  KE= 3.969861717219D+01
 Calling FoFJK, ICntrl=      2127 FMM=F ISym2X=0 I1Cent= 0 IOpClX= 0 NMat=1 NMatS=1 NMatT=0.
 ***** Axes restored to original set *****
 -------------------------------------------------------------------
 Center     Atomic                   Forces (Hartrees/Bohr)
 Number     Number              X              Y              Z
 -------------------------------------------------------------------
      1        6           0.045663512   -0.004536364    0.010978693
      2        1          -0.046104553   -0.012819137    0.000277905
      3        1          -0.007553531    0.022022224    0.008767424
      4        1          -0.014855774   -0.000970097   -0.020420675
      5        1           0.022850346   -0.003696626    0.000396653
 -------------------------------------------------------------------
 Cartesian Forces:  Max     0.046104553 RMS     0.020509844

 GradGradGradGradGradGradGradGradGradGradGradGradGradGradGradGradGradGrad
 Berny optimization.
 Search for a local minimum.
 Step number   1 out of a maximum of    2
 All quantities printed in internal units (Hartrees-Bohrs-Radians)
 Second derivative matrix not updated -- first step.
 The second derivative matrix:
                          X1        Y1        Z1        X2        Y2
           X1           0.62923
           Y1           0.04446   0.62851
           Z1          -0.07139   0.05885   0.54951
           X2          -0.22060   0.02014  -0.07535   0.21453
           Y2           0.01557  -0.05670   0.00622  -0.02106   0.04950
           Z2          -0.07245   0.00816  -0.10790   0.08320  -0.00803
           X3          -0.08062   0.00343   0.02456   0.00857  -0.02053
           Y3          -0.00048  -0.16053  -0.11385  -0.00216   0.00618
           Z3           0.02008  -0.11821  -0.21898   0.00244  -0.00663
           X4          -0.07705  -0.03551   0.01843   0.00574   0.03020
           Y4          -0.03039  -0.32910   0.04101  -0.00028  -0.00134
           Z4           0.01761   0.04110  -0.08111   0.00269   0.01483
           X5          -0.25095  -0.03250   0.10375  -0.00824  -0.00417
           Y5          -0.02915  -0.08218   0.00776   0.00337   0.00237
           Z5           0.10614   0.01010  -0.14151  -0.01297  -0.00639
                          Z2        X3        Y3        Z3        X4
           Z2           0.09190
           X3          -0.02190   0.06162
           Y3           0.00576  -0.00426   0.14864
           Z3          -0.00642  -0.01796   0.12751   0.20878
           X4          -0.00420   0.00162   0.00364  -0.00273   0.06421
           Y4           0.00023  -0.00116  -0.00512   0.00394   0.03293
           Z4          -0.00180  -0.00574  -0.02790   0.02151  -0.01218
           X5           0.01536   0.00881   0.00326  -0.00182   0.00549
           Y5          -0.00612   0.02253   0.01084  -0.00662  -0.03126
           Z5           0.02422   0.02105   0.00848  -0.00489   0.00068
                          Y4        Z4        X5        Y5        Z5
           Y4           0.32874
           Z4          -0.04521   0.06071
           X5          -0.00109  -0.00238   0.24489
           Y5           0.00683   0.01719   0.03451   0.06214
           Z5           0.00003   0.00070  -0.11490  -0.01222   0.12148
 ITU=  0
     Eigenvalues ---    0.09412   0.10363   0.12027   0.12821   0.14625
     Eigenvalues ---    0.30553   0.59792   0.78280   0.80519
 Quadratic step=4.800D-01 exceeds max=3.000D-01 adjusted using Lamda=-6.570D-02.
 Angle between NR and scaled steps=   7.26 degrees.
 Angle between quadratic step and forces=  34.38 degrees.
 Linear search not attempted -- first point.
 B after Tr=     0.014737   -0.000635    0.008529
         Rot=    1.000000    0.000016   -0.000039   -0.000029 Ang=   0.01 deg.
 Variable       Old X    -DE/DX   Delta X   Delta X   Delta X     New X
                                 (Linear)    (Quad)   (Total)
    X1       54.44186   0.04566   0.00000   0.05640   0.07276  54.51461
    Y1       32.02254  -0.00454   0.00000   0.01372   0.01769  32.04024
    Z1       44.78538   0.01098   0.00000   0.01125   0.01452  44.79989
    X2       56.42817  -0.04610   0.00000  -0.14106  -0.12460  56.30357
    Y2       31.78444  -0.01282   0.00000  -0.10100  -0.09689  31.68755
    Z2       45.78599   0.00028   0.00000   0.07456   0.07769  45.86368
    X3       54.58436  -0.00755   0.00000  -0.03376  -0.01746  54.56690
    Y3       30.70956   0.02202   0.00000   0.09698   0.10091  30.81047
    Z3       43.11996   0.00877   0.00000   0.00532   0.00862  43.12858
    X4       54.69856  -0.01486   0.00000  -0.08221  -0.06601  54.63255
    Y4       34.05098  -0.00097   0.00000   0.00485   0.00882  34.05980
    Z4       44.44636  -0.02042   0.00000  -0.13254  -0.12935  44.31701
    X5       52.64361   0.02285   0.00000   0.11886   0.13532  52.77893
    Y5       31.72982  -0.00370   0.00000  -0.03444  -0.03053  31.69929
    Z5       45.85156   0.00040   0.00000   0.02511   0.02852  45.88008
         Item               Value     Threshold  Converged?
 Maximum Force            0.046105     0.000450     NO 
 RMS     Force            0.020510     0.000300     NO 
 Maximum Displacement     0.135316     0.001800     NO 
 RMS     Displacement     0.076833     0.001200     NO 
 Predicted change in Energy=-1.279180D-02
 GradGradGradGradGradGradGradGradGradGradGradGradGradGradGradGradGradGrad

 1\1\GINC-H11R13\Force\RB3LYP\3-21G*\C1H4\ACKGYDJ0BD\08-Jul-2026\0\\#fo
 rce b3lyp/3-21G* Geom=PrintInputOrient\\Generated by MDDatasetMaker (A
 uthor: Jinzhe Zeng)\\0,1\C,28.80939,16.9456,23.6994\H,29.8605,16.8196,
 24.2289\H,28.8848,16.2508,22.8181\H,28.94523,18.019,23.52\H,27.8578,16
 .7907,24.2636\\Version=EM64L-G16RevB.01\State=1-A\HF=-40.2857838\RMSD=
 2.374e-09\RMSF=2.051e-02\Dipole=0.0257704,0.0360493,-0.0090499\Quadrup
 ole=0.2827859,0.0253582,-0.308144,0.1553158,-0.1685817,0.3022379\PG=C0
 1 [X(C1H4)]\\@


 Where a calculator on the ENIAC is equipped with 18,000
 vacuum tubes and weighs 30 tons, computers inthe future
 may  have only 1,000 vacuum tubes and weigh only 1 1/2 tons.
              ---Popular Mechanics, March 1949
 Job cpu time:       0 days  0 hours  2 minutes 29.0 seconds.
 Elapsed time:       0 days  0 hours  0 minutes  3.1 seconds.
 File lengths (MBytes):  RWF=      6 Int=      0 D2E=      0 Chk=      1 Scr=      1
 Normal termination of Gaussian 16 at Wed Jul  8 17:32:28 2026.
