 Entering Gaussian System, Link 0=g16
 Input=data_H1_07.gjf
 Output=data_H1_07.log
 Initial command:
 /work/home/ackgydj0bd/apprepo/gaussian/16b.01-none_v1.3/app/g16/l1.exe "/work/home/ackgydj0bd/apprepo/gaussian/16b.01-none_v1.3/app/g16/scratch/Gau-42025.inp" -scrdir="/work/home/ackgydj0bd/apprepo/gaussian/16b.01-none_v1.3/app/g16/scratch/"
 Entering Link 1 = /work/home/ackgydj0bd/apprepo/gaussian/16b.01-none_v1.3/app/g16/l1.exe PID=     42026.
  
 Copyright (c) 1988-2017, Gaussian, Inc.  All Rights Reserved.
  
 This is part of the Gaussian(R) 16 program.  It is based on
 the Gaussian(R) 09 system (copyright 2009, Gaussian, Inc.),
 the Gaussian(R) 03 system (copyright 2003, Gaussian, Inc.),
 the Gaussian(R) 98 system (copyright 1998, Gaussian, Inc.),
 the Gaussian(R) 94 system (copyright 1995, Gaussian, Inc.),
 the Gaussian 92(TM) system (copyright 1992, Gaussian, Inc.),
 the Gaussian 90(TM) system (copyright 1990, Gaussian, Inc.),
 the Gaussian 88(TM) system (copyright 1988, Gaussian, Inc.),
 the Gaussian 86(TM) system (copyright 1986, Carnegie Mellon
 University), and the Gaussian 82(TM) system (copyright 1983,
 Carnegie Mellon University). Gaussian is a federally registered
 trademark of Gaussian, Inc.
  
 This software contains proprietary and confidential information,
 including trade secrets, belonging to Gaussian, Inc.
  
 This software is provided under written license and may be
 used, copied, transmitted, or stored only in accord with that
 written license.
  
 The following legend is applicable only to US Government
 contracts under FAR:
  
                    RESTRICTED RIGHTS LEGEND
  
 Use, reproduction and disclosure by the US Government is
 subject to restrictions as set forth in subparagraphs (a)
 and (c) of the Commercial Computer Software - Restricted
 Rights clause in FAR 52.227-19.
  
 Gaussian, Inc.
 340 Quinnipiac St., Bldg. 40, Wallingford CT 06492
  
  
 ---------------------------------------------------------------
 Warning -- This program may not be used in any manner that
 competes with the business of Gaussian, Inc. or will provide
 assistance to any competitor of Gaussian, Inc.  The licensee
 of this program is prohibited from giving any competitor of
 Gaussian, Inc. access to this program.  By using this program,
 the user acknowledges that Gaussian, Inc. is engaged in the
 business of creating and licensing software in the field of
 computational chemistry and represents and warrants to the
 licensee that it is not a competitor of Gaussian, Inc. and that
 it will not use this program in any manner prohibited above.
 ---------------------------------------------------------------
  

 Cite this work as:
 Gaussian 16, Revision B.01,
 M. J. Frisch, G. W. Trucks, H. B. Schlegel, G. E. Scuseria, 
 M. A. Robb, J. R. Cheeseman, G. Scalmani, V. Barone, 
 G. A. Petersson, H. Nakatsuji, X. Li, M. Caricato, A. V. Marenich, 
 J. Bloino, B. G. Janesko, R. Gomperts, B. Mennucci, H. P. Hratchian, 
 J. V. Ortiz, A. F. Izmaylov, J. L. Sonnenberg, D. Williams-Young, 
 F. Ding, F. Lipparini, F. Egidi, J. Goings, B. Peng, A. Petrone, 
 T. Henderson, D. Ranasinghe, V. G. Zakrzewski, J. Gao, N. Rega, 
 G. Zheng, W. Liang, M. Hada, M. Ehara, K. Toyota, R. Fukuda, 
 J. Hasegawa, M. Ishida, T. Nakajima, Y. Honda, O. Kitao, H. Nakai, 
 T. Vreven, K. Throssell, J. A. Montgomery, Jr., J. E. Peralta, 
 F. Ogliaro, M. J. Bearpark, J. J. Heyd, E. N. Brothers, K. N. Kudin, 
 V. N. Staroverov, T. A. Keith, R. Kobayashi, J. Normand, 
 K. Raghavachari, A. P. Rendell, J. C. Burant, S. S. Iyengar, 
 J. Tomasi, M. Cossi, J. M. Millam, M. Klene, C. Adamo, R. Cammi, 
 J. W. Ochterski, R. L. Martin, K. Morokuma, O. Farkas, 
 J. B. Foresman, and D. J. Fox, Gaussian, Inc., Wallingford CT, 2016.
 
 ******************************************
 Gaussian 16:  EM64L-G16RevB.01 20-Dec-2017
                 8-Jul-2026 
 ******************************************
 %nproc=64
 Will use up to   64 processors via shared memory.
 %mem=128GB
 -----------------------------------------
 #force b3lyp/3-21G* Geom=PrintInputOrient
 -----------------------------------------
 1/10=7,30=1,38=1/1,3;
 2/9=2000,12=2,17=6,18=5,40=1/2;
 3/5=5,7=1,11=2,25=1,30=1,71=1,74=-5/1,2,3;
 4//1;
 5/5=2,38=5/2;
 6/7=2,8=2,9=2,10=2,28=1/1;
 7/29=1/1,2,3,16;
 1/10=7,30=1/3;
 99//99;
 -------------------------------------------------
 Generated by MDDatasetMaker (Author: Jinzhe Zeng)
 -------------------------------------------------
 Symbolic Z-matrix:
 Charge =  0 Multiplicity = 1
 C                     16.4673   5.45552   0.8419 
 H                     16.5877   6.51758   1.18089 
 H                     15.4098   5.28621   0.78807 
 H                     16.8857   4.71131   1.53219 
 H                     16.93     5.25068  -0.11084 
 

 GradGradGradGradGradGradGradGradGradGradGradGradGradGradGradGradGradGrad
 Berny optimization.
 Initialization pass.
 Trust Radius=3.00D-01 FncErr=1.00D-07 GrdErr=1.00D-07 EigMax=2.50D+02 EigMin=1.00D-04
 Number of steps in this run=      2 maximum allowed number of steps=      2.
 GradGradGradGradGradGradGradGradGradGradGradGradGradGradGradGradGradGrad

                          Input orientation:                          
 ---------------------------------------------------------------------
 Center     Atomic      Atomic             Coordinates (Angstroms)
 Number     Number       Type             X           Y           Z
 ---------------------------------------------------------------------
      1          6           0       16.467300    5.455520    0.841900
      2          1           0       16.587700    6.517580    1.180890
      3          1           0       15.409800    5.286210    0.788070
      4          1           0       16.885700    4.711310    1.532190
      5          1           0       16.930000    5.250680   -0.110840
 ---------------------------------------------------------------------
                    Distance matrix (angstroms):
                    1          2          3          4          5
     1  C    0.000000
     2  H    1.121330   0.000000
     3  H    1.072320   1.748722   0.000000
     4  H    1.097910   1.864089   1.750002   0.000000
     5  H    1.078779   1.841405   1.766440   1.729864   0.000000
 Stoichiometry    CH4
 Framework group  C1[X(CH4)]
 Deg. of freedom     9
 Full point group                 C1      NOp   1
 Largest Abelian subgroup         C1      NOp   1
 Largest concise Abelian subgroup C1      NOp   1
                         Standard orientation:                         
 ---------------------------------------------------------------------
 Center     Atomic      Atomic             Coordinates (Angstroms)
 Number     Number       Type             X           Y           Z
 ---------------------------------------------------------------------
      1          6           0        0.002588    0.007148   -0.003227
      2          1           0        0.995721    0.266947   -0.454418
      3          1           0        0.219568   -0.644218    0.820490
      4          1           0       -0.673619   -0.531281   -0.680165
      5          1           0       -0.557201    0.865661    0.333456
 ---------------------------------------------------------------------
 Rotational constants (GHZ):         168.7251704         153.9343664         150.9327087
 Standard basis: 3-21G* (6D, 7F)
 There are    17 symmetry adapted cartesian basis functions of A   symmetry.
 There are    17 symmetry adapted basis functions of A   symmetry.
    17 basis functions,    27 primitive gaussians,    17 cartesian basis functions
     5 alpha electrons        5 beta electrons
       nuclear repulsion energy        13.4092902308 Hartrees.
 NAtoms=    5 NActive=    5 NUniq=    5 SFac= 1.00D+00 NAtFMM=   60 NAOKFM=F Big=F
 Integral buffers will be    131072 words long.
 Raffenetti 2 integral format.
 Two-electron integral symmetry is turned on.
 One-electron integrals computed using PRISM.
 NBasis=    17 RedAO= T EigKep=  3.39D-02  NBF=    17
 NBsUse=    17 1.00D-06 EigRej= -1.00D+00 NBFU=    17
 ExpMin= 1.83D-01 ExpMax= 1.72D+02 ExpMxC= 1.72D+02 IAcc=3 IRadAn=         5 AccDes= 0.00D+00
 Harris functional with IExCor=  402 and IRadAn=       5 diagonalized for initial guess.
 HarFok:  IExCor=  402 AccDes= 0.00D+00 IRadAn=         5 IDoV= 1 UseB2=F ITyADJ=14
 ICtDFT=  3500011 ScaDFX=  1.000000  1.000000  1.000000  1.000000
 FoFCou: FMM=F IPFlag=           0 FMFlag=      100000 FMFlg1=           0
         NFxFlg=           0 DoJE=T BraDBF=F KetDBF=T FulRan=T
         wScrn=  0.000000 ICntrl=       500 IOpCl=  0 I1Cent=   200000004 NGrid=           0
         NMat0=    1 NMatS0=      1 NMatT0=    0 NMatD0=    1 NMtDS0=    0 NMtDT0=    0
 Petite list used in FoFCou.
 Keep R1 ints in memory in canonical form, NReq=55236554.
 Requested convergence on RMS density matrix=1.00D-08 within 128 cycles.
 Requested convergence on MAX density matrix=1.00D-06.
 Requested convergence on             energy=1.00D-06.
 No special actions if energy rises.
 Integral accuracy reduced to 1.0D-05 until final iterations.
 Initial convergence to 1.0D-05 achieved.  Increase integral accuracy.
 SCF Done:  E(RB3LYP) =  -40.2989068722     A.U. after    9 cycles
            NFock=  9  Conv=0.45D-08     -V/T= 2.0105

 **********************************************************************

            Population analysis using the SCF Density.

 **********************************************************************

 Orbital symmetries:
       Occupied  (A) (A) (A) (A) (A)
       Virtual   (A) (A) (A) (A) (A) (A) (A) (A) (A) (A) (A) (A)
 The electronic state is 1-A.
 Alpha  occ. eigenvalues --  -10.09958  -0.69087  -0.40226  -0.38529  -0.37871
 Alpha virt. eigenvalues --    0.14411   0.18839   0.19111   0.20324   0.69568
 Alpha virt. eigenvalues --    0.69902   0.73217   1.01299   1.05017   1.06031
 Alpha virt. eigenvalues --    1.07279   1.69443
          Condensed to atoms (all electrons):
               1          2          3          4          5
     1  C    5.296729   0.369091   0.365090   0.366303   0.368825
     2  H    0.369091   0.518612  -0.030746  -0.019165  -0.020932
     3  H    0.365090  -0.030746   0.522474  -0.028645  -0.025912
     4  H    0.366303  -0.019165  -0.028645   0.524208  -0.032188
     5  H    0.368825  -0.020932  -0.025912  -0.032188   0.514533
 Mulliken charges:
               1
     1  C   -0.766038
     2  H    0.183140
     3  H    0.197738
     4  H    0.189487
     5  H    0.195673
 Sum of Mulliken charges =   0.00000
 Mulliken charges with hydrogens summed into heavy atoms:
               1
     1  C    0.000000
 Electronic spatial extent (au):  <R**2>=             35.4594
 Charge=              0.0000 electrons
 Dipole moment (field-independent basis, Debye):
    X=             -0.0359    Y=             -0.0391    Z=              0.0558  Tot=              0.0770
 Quadrupole moment (field-independent basis, Debye-Ang):
   XX=             -7.9701   YY=             -8.3333   ZZ=             -8.4519
   XY=             -0.0390   XZ=              0.0143   YZ=             -0.0097
 Traceless Quadrupole moment (field-independent basis, Debye-Ang):
   XX=              0.2817   YY=             -0.0815   ZZ=             -0.2001
   XY=             -0.0390   XZ=              0.0143   YZ=             -0.0097
 Octapole moment (field-independent basis, Debye-Ang**2):
  XXX=              0.3175  YYY=              0.1009  ZZZ=              0.2884  XYY=             -0.3771
  XXY=              0.1844  XXZ=             -0.4169  XZZ=             -0.0501  YZZ=             -0.3765
  YYZ=              0.3128  XYZ=             -0.4677
 Hexadecapole moment (field-independent basis, Debye-Ang**3):
 XXXX=            -15.2249 YYYY=            -14.7353 ZZZZ=            -14.7564 XXXY=              0.2149
 XXXZ=             -0.2866 YYYX=             -0.4016 YYYZ=              0.0739 ZZZX=              0.2659
 ZZZY=             -0.2115 XXYY=             -4.8882 XXZZ=             -4.8464 YYZZ=             -4.6488
 XXYZ=              0.1129 YYXZ=              0.0478 ZZXY=              0.0478
 N-N= 1.340929023084D+01 E-N=-1.193746937584D+02  KE= 3.988122591373D+01
 Calling FoFJK, ICntrl=      2127 FMM=F ISym2X=0 I1Cent= 0 IOpClX= 0 NMat=1 NMatS=1 NMatT=0.
 ***** Axes restored to original set *****
 -------------------------------------------------------------------
 Center     Atomic                   Forces (Hartrees/Bohr)
 Number     Number              X              Y              Z
 -------------------------------------------------------------------
      1        6           0.005054407    0.008366288    0.014796927
      2        1           0.007706266   -0.018813256   -0.004764226
      3        1          -0.015469290   -0.005151768   -0.004656623
      4        1           0.000447878    0.008881235    0.005931554
      5        1           0.002260738    0.006717500   -0.011307632
 -------------------------------------------------------------------
 Cartesian Forces:  Max     0.018813256 RMS     0.009417700

 GradGradGradGradGradGradGradGradGradGradGradGradGradGradGradGradGradGrad
 Berny optimization.
 Search for a local minimum.
 Step number   1 out of a maximum of    2
 All quantities printed in internal units (Hartrees-Bohrs-Radians)
 Second derivative matrix not updated -- first step.
 The second derivative matrix:
                          X1        Y1        Z1        X2        Y2
           X1           0.67028
           Y1          -0.02000   0.67033
           Z1          -0.02388   0.01164   0.65485
           X2          -0.07481  -0.02266  -0.00591   0.05673
           Y2          -0.02502  -0.28998  -0.06790   0.02680   0.28747
           Z2          -0.00668  -0.06812  -0.09947   0.00752   0.07452
           X3          -0.36089  -0.04502  -0.01411   0.00616  -0.00064
           Y3          -0.04831  -0.08655  -0.00517  -0.03494   0.00365
           Z3          -0.01494  -0.00513  -0.07595  -0.01112   0.00100
           X4          -0.10871   0.06679  -0.06242   0.00550  -0.00336
           Y4           0.07024  -0.20040   0.11204   0.01263  -0.00849
           Z4          -0.06394   0.10910  -0.18052   0.01029  -0.00712
           X5          -0.12587   0.02088   0.10631   0.00642   0.00222
           Y5           0.02308  -0.09340  -0.05061   0.01817   0.00736
           Z5           0.10944  -0.04748  -0.29891  -0.00079  -0.00051
                          Z2        X3        Y3        Z3        X4
           Z2           0.07815
           X3          -0.00020   0.36095
           Y3           0.00098   0.04785   0.06910
           Z3           0.00081   0.01517   0.00453   0.05702
           X4           0.00857  -0.00309   0.02647  -0.02251   0.09518
           Y4           0.02212  -0.00131   0.01108  -0.00915  -0.07443
           Z4           0.01865   0.00046  -0.00410   0.00378   0.06763
           X5          -0.00922  -0.00313   0.00894   0.03340   0.01112
           Y5          -0.02950  -0.00088   0.00272   0.00875  -0.01547
           Z5           0.00186  -0.00133   0.00376   0.01434   0.00873
                          Y4        Z4        X5        Y5        Z5
           Y4           0.18677
           Z4          -0.11916   0.16968
           X5          -0.00714  -0.01444   0.11145
           Y5           0.01104   0.02129  -0.02490   0.07228
           Z5          -0.00584  -0.01159  -0.11604   0.05007   0.29430
 ITU=  0
     Eigenvalues ---    0.10960   0.11542   0.12784   0.13746   0.14119
     Eigenvalues ---    0.34254   0.78987   0.79377   0.85754
 Angle between quadratic step and forces=  40.64 degrees.
 Linear search not attempted -- first point.
 B after Tr=    -0.004258   -0.003935    0.001467
         Rot=    1.000000    0.000001   -0.000002   -0.000003 Ang=   0.00 deg.
 Variable       Old X    -DE/DX   Delta X   Delta X   Delta X     New X
                                 (Linear)    (Quad)   (Total)
    X1       31.11869   0.00505   0.00000  -0.01485  -0.01915  31.09954
    Y1       10.30944   0.00837   0.00000  -0.01301  -0.01678  10.29265
    Z1        1.59096   0.01480   0.00000   0.00454   0.00586   1.59682
    X2       31.34621   0.00771   0.00000   0.08011   0.07580  31.42201
    Y2       12.31644  -0.01881   0.00000  -0.08185  -0.08562  12.23082
    Z2        2.23156  -0.00476   0.00000  -0.00750  -0.00619   2.22537
    X3       29.12030  -0.01547   0.00000  -0.05512  -0.05942  29.06088
    Y3        9.98949  -0.00515   0.00000  -0.02917  -0.03296   9.95653
    Z3        1.48924  -0.00466   0.00000  -0.03267  -0.03135   1.45789
    X4       31.90935   0.00045   0.00000   0.01510   0.01080  31.92015
    Y4        8.90309   0.00888   0.00000   0.07151   0.06774   8.97083
    Z4        2.89542   0.00593   0.00000   0.06758   0.06889   2.96431
    X5       31.99306   0.00226   0.00000  -0.00373  -0.00804  31.98503
    Y5        9.92235   0.00672   0.00000   0.07139   0.06762   9.98996
    Z5       -0.20946  -0.01131   0.00000  -0.03853  -0.03722  -0.24667
         Item               Value     Threshold  Converged?
 Maximum Force            0.018813     0.000450     NO 
 RMS     Force            0.009418     0.000300     NO 
 Maximum Displacement     0.085620     0.001800     NO 
 RMS     Displacement     0.048216     0.001200     NO 
 Predicted change in Energy=-2.590444D-03
 GradGradGradGradGradGradGradGradGradGradGradGradGradGradGradGradGradGrad

 1\1\GINC-H11R13\Force\RB3LYP\3-21G*\C1H4\ACKGYDJ0BD\08-Jul-2026\0\\#fo
 rce b3lyp/3-21G* Geom=PrintInputOrient\\Generated by MDDatasetMaker (A
 uthor: Jinzhe Zeng)\\0,1\C,16.4673,5.45552,0.8419\H,16.5877,6.51758,1.
 18089\H,15.4098,5.28621,0.78807\H,16.8857,4.71131,1.53219\H,16.93,5.25
 068,-0.11084\\Version=EM64L-G16RevB.01\State=1-A\HF=-40.2989069\RMSD=4
 .451e-09\RMSF=9.418e-03\Dipole=-0.019821,-0.0217831,-0.0071284\Quadrup
 ole=-0.0475588,0.1371372,-0.0895784,-0.1116501,-0.0754033,0.0560538\PG
 =C01 [X(C1H4)]\\@


 A COMPLEXITY IS MERELY A DISARRANGEMENT OF SIMPLICITIES.

                                    -- G. O. ABELL IN "EXPLORATION OF THE UNIVERSE"
 Job cpu time:       0 days  0 hours  2 minutes 32.7 seconds.
 Elapsed time:       0 days  0 hours  0 minutes  3.1 seconds.
 File lengths (MBytes):  RWF=      6 Int=      0 D2E=      0 Chk=      1 Scr=      1
 Normal termination of Gaussian 16 at Wed Jul  8 17:32:25 2026.
