 Entering Gaussian System, Link 0=g16
 Input=data_O2_04.gjf
 Output=data_O2_04.log
 Initial command:
 /work/home/ackgydj0bd/apprepo/gaussian/16b.01-none_v1.3/app/g16/l1.exe "/work/home/ackgydj0bd/apprepo/gaussian/16b.01-none_v1.3/app/g16/scratch/Gau-62178.inp" -scrdir="/work/home/ackgydj0bd/apprepo/gaussian/16b.01-none_v1.3/app/g16/scratch/"
 Entering Link 1 = /work/home/ackgydj0bd/apprepo/gaussian/16b.01-none_v1.3/app/g16/l1.exe PID=     62179.
  
 Copyright (c) 1988-2017, Gaussian, Inc.  All Rights Reserved.
  
 This is part of the Gaussian(R) 16 program.  It is based on
 the Gaussian(R) 09 system (copyright 2009, Gaussian, Inc.),
 the Gaussian(R) 03 system (copyright 2003, Gaussian, Inc.),
 the Gaussian(R) 98 system (copyright 1998, Gaussian, Inc.),
 the Gaussian(R) 94 system (copyright 1995, Gaussian, Inc.),
 the Gaussian 92(TM) system (copyright 1992, Gaussian, Inc.),
 the Gaussian 90(TM) system (copyright 1990, Gaussian, Inc.),
 the Gaussian 88(TM) system (copyright 1988, Gaussian, Inc.),
 the Gaussian 86(TM) system (copyright 1986, Carnegie Mellon
 University), and the Gaussian 82(TM) system (copyright 1983,
 Carnegie Mellon University). Gaussian is a federally registered
 trademark of Gaussian, Inc.
  
 This software contains proprietary and confidential information,
 including trade secrets, belonging to Gaussian, Inc.
  
 This software is provided under written license and may be
 used, copied, transmitted, or stored only in accord with that
 written license.
  
 The following legend is applicable only to US Government
 contracts under FAR:
  
                    RESTRICTED RIGHTS LEGEND
  
 Use, reproduction and disclosure by the US Government is
 subject to restrictions as set forth in subparagraphs (a)
 and (c) of the Commercial Computer Software - Restricted
 Rights clause in FAR 52.227-19.
  
 Gaussian, Inc.
 340 Quinnipiac St., Bldg. 40, Wallingford CT 06492
  
  
 ---------------------------------------------------------------
 Warning -- This program may not be used in any manner that
 competes with the business of Gaussian, Inc. or will provide
 assistance to any competitor of Gaussian, Inc.  The licensee
 of this program is prohibited from giving any competitor of
 Gaussian, Inc. access to this program.  By using this program,
 the user acknowledges that Gaussian, Inc. is engaged in the
 business of creating and licensing software in the field of
 computational chemistry and represents and warrants to the
 licensee that it is not a competitor of Gaussian, Inc. and that
 it will not use this program in any manner prohibited above.
 ---------------------------------------------------------------
  

 Cite this work as:
 Gaussian 16, Revision B.01,
 M. J. Frisch, G. W. Trucks, H. B. Schlegel, G. E. Scuseria, 
 M. A. Robb, J. R. Cheeseman, G. Scalmani, V. Barone, 
 G. A. Petersson, H. Nakatsuji, X. Li, M. Caricato, A. V. Marenich, 
 J. Bloino, B. G. Janesko, R. Gomperts, B. Mennucci, H. P. Hratchian, 
 J. V. Ortiz, A. F. Izmaylov, J. L. Sonnenberg, D. Williams-Young, 
 F. Ding, F. Lipparini, F. Egidi, J. Goings, B. Peng, A. Petrone, 
 T. Henderson, D. Ranasinghe, V. G. Zakrzewski, J. Gao, N. Rega, 
 G. Zheng, W. Liang, M. Hada, M. Ehara, K. Toyota, R. Fukuda, 
 J. Hasegawa, M. Ishida, T. Nakajima, Y. Honda, O. Kitao, H. Nakai, 
 T. Vreven, K. Throssell, J. A. Montgomery, Jr., J. E. Peralta, 
 F. Ogliaro, M. J. Bearpark, J. J. Heyd, E. N. Brothers, K. N. Kudin, 
 V. N. Staroverov, T. A. Keith, R. Kobayashi, J. Normand, 
 K. Raghavachari, A. P. Rendell, J. C. Burant, S. S. Iyengar, 
 J. Tomasi, M. Cossi, J. M. Millam, M. Klene, C. Adamo, R. Cammi, 
 J. W. Ochterski, R. L. Martin, K. Morokuma, O. Farkas, 
 J. B. Foresman, and D. J. Fox, Gaussian, Inc., Wallingford CT, 2016.
 
 ******************************************
 Gaussian 16:  EM64L-G16RevB.01 20-Dec-2017
                 8-Jul-2026 
 ******************************************
 %nproc=64
 Will use up to   64 processors via shared memory.
 %mem=128GB
 -----------------------------------------
 #force b3lyp/3-21G* Geom=PrintInputOrient
 -----------------------------------------
 1/10=7,30=1,38=1/1,3;
 2/9=2000,12=2,17=6,18=5,40=1/2;
 3/5=5,7=1,11=2,25=1,30=1,71=1,74=-5/1,2,3;
 4//1;
 5/5=2,38=5/2;
 6/7=2,8=2,9=2,10=2,28=1/1;
 7/29=1/1,2,3,16;
 1/10=7,30=1/3;
 99//99;
 -------------------------------------------------
 Generated by MDDatasetMaker (Author: Jinzhe Zeng)
 -------------------------------------------------
 Symbolic Z-matrix:
 Charge =  0 Multiplicity = 3
 C                     18.075    14.4783   23.1125 
 H                     17.0612   14.3623   22.7063 
 H                     18.7186   14.9099   22.342 
 H                     18.0942   15.2022   23.9062 
 H                     18.4672   13.4377   23.3847 
 O                     15.8044   14.6173   20.9885 
 O                     16.8709   14.2089   20.8037 
 

 GradGradGradGradGradGradGradGradGradGradGradGradGradGradGradGradGradGrad
 Berny optimization.
 Initialization pass.
 Trust Radius=3.00D-01 FncErr=1.00D-07 GrdErr=1.00D-07 EigMax=2.50D+02 EigMin=1.00D-04
 Number of steps in this run=      2 maximum allowed number of steps=      2.
 GradGradGradGradGradGradGradGradGradGradGradGradGradGradGradGradGradGrad

                          Input orientation:                          
 ---------------------------------------------------------------------
 Center     Atomic      Atomic             Coordinates (Angstroms)
 Number     Number       Type             X           Y           Z
 ---------------------------------------------------------------------
      1          6           0       18.075000   14.478300   23.112500
      2          1           0       17.061200   14.362300   22.706300
      3          1           0       18.718600   14.909900   22.342000
      4          1           0       18.094200   15.202200   23.906200
      5          1           0       18.467200   13.437700   23.384700
      6          8           0       15.804400   14.617300   20.988500
      7          8           0       16.870900   14.208900   20.803700
 ---------------------------------------------------------------------
                    Distance matrix (angstroms):
                    1          2          3          4          5
     1  C    0.000000
     2  H    1.098292   0.000000
     3  H    1.092781   1.783131   0.000000
     4  H    1.074411   1.792284   1.709396   0.000000
     5  H    1.144885   1.814373   1.821482   1.877379   0.000000
     6  O    3.112286   2.143690   3.226475   3.754766   3.771437
     7  O    2.617822   1.918237   2.504349   3.479743   3.131211
                    6          7
     6  O    0.000000
     7  O    1.156877   0.000000
 Stoichiometry    CH4O2(3)
 Framework group  C1[X(CH4O2)]
 Deg. of freedom    15
 Full point group                 C1      NOp   1
 Largest Abelian subgroup         C1      NOp   1
 Largest concise Abelian subgroup C1      NOp   1
                         Standard orientation:                         
 ---------------------------------------------------------------------
 Center     Atomic      Atomic             Coordinates (Angstroms)
 Number     Number       Type             X           Y           Z
 ---------------------------------------------------------------------
      1          6           0       -1.733422   -0.091880    0.007959
      2          1           0       -0.762842   -0.496690    0.324739
      3          1           0       -1.572914    0.616184   -0.808774
      4          1           0       -2.349903   -0.857477   -0.425829
      5          1           0       -2.191097    0.464336    0.897857
      6          8           0        1.357528   -0.455660    0.012080
      7          8           0        0.802133    0.558776   -0.016548
 ---------------------------------------------------------------------
 Rotational constants (GHZ):          42.9375281           5.6083832           5.1386417
 Standard basis: 3-21G* (6D, 7F)
 There are    35 symmetry adapted cartesian basis functions of A   symmetry.
 There are    35 symmetry adapted basis functions of A   symmetry.
    35 basis functions,    57 primitive gaussians,    35 cartesian basis functions
    14 alpha electrons       12 beta electrons
       nuclear repulsion energy        72.4323958541 Hartrees.
 NAtoms=    7 NActive=    7 NUniq=    7 SFac= 1.00D+00 NAtFMM=   60 NAOKFM=F Big=F
 Integral buffers will be    131072 words long.
 Raffenetti 2 integral format.
 Two-electron integral symmetry is turned on.
 One-electron integrals computed using PRISM.
 NBasis=    35 RedAO= T EigKep=  3.27D-02  NBF=    35
 NBsUse=    35 1.00D-06 EigRej= -1.00D+00 NBFU=    35
 ExpMin= 1.83D-01 ExpMax= 3.22D+02 ExpMxC= 3.22D+02 IAcc=3 IRadAn=         5 AccDes= 0.00D+00
 Harris functional with IExCor=  402 and IRadAn=       5 diagonalized for initial guess.
 HarFok:  IExCor=  402 AccDes= 0.00D+00 IRadAn=         5 IDoV= 1 UseB2=F ITyADJ=14
 ICtDFT=  3500011 ScaDFX=  1.000000  1.000000  1.000000  1.000000
 FoFCou: FMM=F IPFlag=           0 FMFlag=      100000 FMFlg1=           0
         NFxFlg=           0 DoJE=T BraDBF=F KetDBF=T FulRan=T
         wScrn=  0.000000 ICntrl=       500 IOpCl=  0 I1Cent=   200000004 NGrid=           0
         NMat0=    1 NMatS0=      1 NMatT0=    0 NMatD0=    1 NMtDS0=    0 NMtDT0=    0
 Petite list used in FoFCou.
 Initial guess <Sx>= 0.0000 <Sy>= 0.0000 <Sz>= 1.0000 <S**2>= 2.0000 S= 1.0000
 Keep R1 and R2 ints in memory in canonical form, NReq=55694677.
 Requested convergence on RMS density matrix=1.00D-08 within 128 cycles.
 Requested convergence on MAX density matrix=1.00D-06.
 Requested convergence on             energy=1.00D-06.
 No special actions if energy rises.
 Integral accuracy reduced to 1.0D-05 until final iterations.
 Initial convergence to 1.0D-05 achieved.  Increase integral accuracy.
 SCF Done:  E(UB3LYP) =  -189.744454404     A.U. after   13 cycles
            NFock= 13  Conv=0.55D-08     -V/T= 2.0052
 <Sx>= 0.0000 <Sy>= 0.0000 <Sz>= 1.0000 <S**2>= 2.0042 S= 1.0014
 <L.S>= 0.000000000000E+00
 Annihilation of the first spin contaminant:
 S**2 before annihilation     2.0042,   after     2.0000

 **********************************************************************

            Population analysis using the SCF Density.

 **********************************************************************

 Orbital symmetries:
 Alpha Orbitals:
       Occupied  (A) (A) (A) (A) (A) (A) (A) (A) (A) (A) (A) (A)
                 (A) (A)
       Virtual   (A) (A) (A) (A) (A) (A) (A) (A) (A) (A) (A) (A)
                 (A) (A) (A) (A) (A) (A) (A) (A) (A)
 Beta  Orbitals:
       Occupied  (A) (A) (A) (A) (A) (A) (A) (A) (A) (A) (A) (A)
       Virtual   (A) (A) (A) (A) (A) (A) (A) (A) (A) (A) (A) (A)
                 (A) (A) (A) (A) (A) (A) (A) (A) (A) (A) (A)
 The electronic state is 3-A.
 Alpha  occ. eigenvalues --  -19.18879 -19.18594 -10.09669  -1.38108  -0.80333
 Alpha  occ. eigenvalues --   -0.68802  -0.58513  -0.58052  -0.53137  -0.39485
 Alpha  occ. eigenvalues --   -0.37999  -0.37043  -0.28179  -0.27918
 Alpha virt. eigenvalues --    0.14916   0.18635   0.20120   0.20985   0.28862
 Alpha virt. eigenvalues --    0.70228   0.72309   0.73519   0.99998   1.04690
 Alpha virt. eigenvalues --    1.06399   1.06878   1.28605   1.32115   1.38449
 Alpha virt. eigenvalues --    1.41983   1.44117   1.51334   1.75363   2.35959
 Alpha virt. eigenvalues --    2.73555
  Beta  occ. eigenvalues --  -19.16022 -19.15825 -10.09666  -1.32281  -0.71839
  Beta  occ. eigenvalues --   -0.68407  -0.49601  -0.48627  -0.47720  -0.39251
  Beta  occ. eigenvalues --   -0.37831  -0.36216
  Beta virt. eigenvalues --   -0.08532  -0.08403   0.14988   0.18682   0.20223
  Beta virt. eigenvalues --    0.21363   0.33570   0.70410   0.72661   0.73601
  Beta virt. eigenvalues --    1.00053   1.04867   1.06720   1.07404   1.34496
  Beta virt. eigenvalues --    1.35997   1.44857   1.49041   1.49655   1.53303
  Beta virt. eigenvalues --    1.76514   2.40751   2.78993
          Condensed to atoms (all electrons):
               1          2          3          4          5          6
     1  C    5.344658   0.348467   0.364350   0.356866   0.363543  -0.006039
     2  H    0.348467   0.541670  -0.030198  -0.024291  -0.025250   0.011031
     3  H    0.364350  -0.030198   0.535143  -0.034839  -0.024111  -0.000125
     4  H    0.356866  -0.024291  -0.034839   0.529460  -0.017810  -0.000050
     5  H    0.363543  -0.025250  -0.024111  -0.017810   0.529922   0.000074
     6  O   -0.006039   0.011031  -0.000125  -0.000050   0.000074   8.009855
     7  O   -0.011436  -0.006917   0.002342   0.000649   0.000345  -0.018318
               7
     1  C   -0.011436
     2  H   -0.006917
     3  H    0.002342
     4  H    0.000649
     5  H    0.000345
     6  O   -0.018318
     7  O    8.012726
          Atomic-Atomic Spin Densities.
               1          2          3          4          5          6
     1  C   -0.014431   0.006858   0.000112  -0.000025   0.000762   0.000583
     2  H    0.006858   0.009555   0.000490  -0.002986  -0.000520   0.004567
     3  H    0.000112   0.000490   0.001025  -0.000589   0.000115  -0.000020
     4  H   -0.000025  -0.002986  -0.000589   0.007381  -0.000067  -0.000153
     5  H    0.000762  -0.000520   0.000115  -0.000067  -0.000226  -0.000006
     6  O    0.000583   0.004567  -0.000020  -0.000153  -0.000006   1.341418
     7  O    0.002934  -0.017263  -0.000109   0.000321  -0.000025  -0.360665
               7
     1  C    0.002934
     2  H   -0.017263
     3  H   -0.000109
     4  H    0.000321
     5  H   -0.000025
     6  O   -0.360665
     7  O    1.386655
 Mulliken charges and spin densities:
               1          2
     1  C   -0.760410  -0.003208
     2  H    0.185488   0.000700
     3  H    0.187439   0.001024
     4  H    0.190015   0.003882
     5  H    0.173286   0.000031
     6  O    0.003573   0.985724
     7  O    0.020609   1.011848
 Sum of Mulliken charges =   0.00000   2.00000
 Mulliken charges and spin densities with hydrogens summed into heavy atoms:
               1          2
     1  C   -0.024182   0.002428
     6  O    0.003573   0.985724
     7  O    0.020609   1.011848
 Electronic spatial extent (au):  <R**2>=            250.9323
 Charge=              0.0000 electrons
 Dipole moment (field-independent basis, Debye):
    X=              0.2901    Y=              0.1219    Z=             -0.0823  Tot=              0.3253
 Quadrupole moment (field-independent basis, Debye-Ang):
   XX=            -18.5153   YY=            -18.7711   ZZ=            -17.6279
   XY=              0.3884   XZ=              0.1823   YZ=              0.1942
 Traceless Quadrupole moment (field-independent basis, Debye-Ang):
   XX=             -0.2105   YY=             -0.4663   ZZ=              0.6769
   XY=              0.3884   XZ=              0.1823   YZ=              0.1942
 Octapole moment (field-independent basis, Debye-Ang**2):
  XXX=             13.7517  YYY=              0.4943  ZZZ=             -0.1215  XYY=              3.2983
  XXY=              1.2227  XXZ=             -0.4260  XZZ=              3.7674  YZZ=              0.6994
  YYZ=             -0.3127  XYZ=             -0.7267
 Hexadecapole moment (field-independent basis, Debye-Ang**3):
 XXXX=           -249.0196 YYYY=            -36.1476 ZZZZ=            -20.9995 XXXY=              1.9160
 XXXZ=              0.7853 YYYX=             -0.8249 YYYZ=              0.1367 ZZZX=             -0.0807
 ZZZY=              0.1214 XXYY=            -46.3719 XXZZ=            -42.4135 YYZZ=             -9.2732
 XXYZ=              2.2129 YYXZ=              0.6637 ZZXY=             -1.1593
 N-N= 7.243239585407D+01 E-N=-5.907207981776D+02  KE= 1.887560788429D+02
                          Isotropic Fermi Contact Couplings
        Atom                 a.u.       MegaHertz       Gauss      10(-4) cm-1
     1  C(13)             -0.00137      -0.76767      -0.27393      -0.25607
     2  H(1)               0.00129       2.89258       1.03215       0.96486
     3  H(1)               0.00107       2.39021       0.85289       0.79729
     4  H(1)               0.00124       2.77044       0.98856       0.92412
     5  H(1)               0.00008       0.17088       0.06097       0.05700
     6  O(17)              0.16377     -49.63689     -17.71168     -16.55709
     7  O(17)              0.17063     -51.71768     -18.45415     -17.25116
 --------------------------------------------------------
       Center         ----  Spin Dipole Couplings  ----
                      3XX-RR        3YY-RR        3ZZ-RR
 --------------------------------------------------------
     1   Atom        0.026523     -0.012690     -0.013833
     2   Atom        0.044759     -0.013021     -0.031738
     3   Atom        0.022171     -0.012365     -0.009806
     4   Atom        0.010234     -0.004289     -0.005945
     5   Atom        0.012892     -0.007049     -0.005843
     6   Atom        0.277379     -1.389008      1.111630
     7   Atom        0.392990     -1.395941      1.002951
 --------------------------------------------------------
                        XY            XZ            YZ
 --------------------------------------------------------
     1   Atom        0.008884     -0.002280     -0.000874
     2   Atom        0.028147     -0.014433     -0.006638
     3   Atom       -0.004705      0.011667     -0.002236
     4   Atom        0.005094      0.002165      0.000891
     5   Atom       -0.001500     -0.006072      0.000545
     6   Atom        1.266793     -0.030914      0.074137
     7   Atom        1.367704     -0.043508      0.062478
 --------------------------------------------------------


 ---------------------------------------------------------------------------------
              Anisotropic Spin Dipole Couplings in Principal Axis System
 ---------------------------------------------------------------------------------

       Atom             a.u.   MegaHertz   Gauss  10(-4) cm-1        Axes

              Baa    -0.0148    -1.983    -0.708    -0.662 -0.1691  0.8931  0.4168
     1 C(13)  Bbb    -0.0138    -1.852    -0.661    -0.618  0.1388 -0.3971  0.9072
              Bcc     0.0286     3.835     1.368     1.279  0.9758  0.2113 -0.0568
 
              Baa    -0.0346   -18.441    -6.580    -6.151  0.1330  0.1290  0.9827
     2 H(1)   Bbb    -0.0244   -13.028    -4.649    -4.346 -0.3882  0.9191 -0.0681
              Bcc     0.0590    31.469    11.229    10.497  0.9119  0.3724 -0.1723
 
              Baa    -0.0140    -7.496    -2.675    -2.500 -0.1914  0.5473  0.8148
     3 H(1)   Bbb    -0.0126    -6.729    -2.401    -2.244  0.2763  0.8266 -0.4903
              Bcc     0.0267    14.224     5.076     4.745  0.9418 -0.1313  0.3094
 
              Baa    -0.0063    -3.379    -1.206    -1.127  0.0128 -0.4260  0.9046
     4 H(1)   Bbb    -0.0058    -3.100    -1.106    -1.034 -0.3259  0.8535  0.4066
              Bcc     0.0121     6.479     2.312     2.161  0.9453  0.3000  0.1279
 
              Baa    -0.0077    -4.086    -1.458    -1.363  0.2651 -0.1930  0.9447
     5 H(1)   Bbb    -0.0071    -3.813    -1.360    -1.272  0.1234  0.9785  0.1653
              Bcc     0.0148     7.899     2.819     2.635  0.9563 -0.0727 -0.2832
 
              Baa    -2.0741   150.077    53.551    50.060 -0.4744  0.8800 -0.0251
     6 O(17)  Bbb     0.9600   -69.466   -24.787   -23.171  0.8797  0.4728 -0.0518
              Bcc     1.1140   -80.612   -28.764   -26.889  0.0337  0.0466  0.9983
 
              Baa    -2.1375   154.669    55.190    51.592 -0.4757  0.8793 -0.0241
     7 O(17)  Bbb     1.0042   -72.664   -25.928   -24.238  0.0469  0.0527  0.9975
              Bcc     1.1333   -82.006   -29.262   -27.354  0.8784  0.4733 -0.0663
 

 ---------------------------------------------------------------------------------

 Calling FoFJK, ICntrl=      2127 FMM=F ISym2X=0 I1Cent= 0 IOpClX= 1 NMat=1 NMatS=1 NMatT=0.
 ***** Axes restored to original set *****
 -------------------------------------------------------------------
 Center     Atomic                   Forces (Hartrees/Bohr)
 Number     Number              X              Y              Z
 -------------------------------------------------------------------
      1        6           0.005270684   -0.025464171   -0.004743147
      2        1           0.013712146    0.004178296    0.015725835
      3        1          -0.000208836   -0.005140041   -0.005615458
      4        1          -0.001515919   -0.001019390    0.018974478
      5        1          -0.007855300    0.029869038   -0.000468689
      6        8          -0.210706717    0.079879880    0.033145004
      7        8           0.201303942   -0.082303612   -0.057018023
 -------------------------------------------------------------------
 Cartesian Forces:  Max     0.210706717 RMS     0.070694466

 GradGradGradGradGradGradGradGradGradGradGradGradGradGradGradGradGradGrad
 Berny optimization.
 Search for a local minimum.
 Step number   1 out of a maximum of    2
 All quantities printed in internal units (Hartrees-Bohrs-Radians)
 Second derivative matrix not updated -- first step.
 ITU=  0
     Eigenvalues ---    0.00000   0.00000   0.00000   0.00000   0.00000
     Eigenvalues ---    0.10762   0.11238   0.12684   0.13488   0.14094
     Eigenvalues ---    0.33123   0.77068   0.79796   0.90193   2.59719
 Eigenvalue     1 is  -3.33D-16 should be greater than     0.000000 Eigenvector:
                          Z6        Z7        X6        X4        X1
   1                    0.64198  -0.50056   0.34533  -0.17600  -0.17600
                          X5        X2        X3        Y7        Y6
   1                   -0.17600  -0.17600  -0.17600  -0.16524   0.07336
 Eigenvalue     2 is  -2.22D-16 should be greater than     0.000000 Eigenvector:
                          Z7        Z5        Z3        Z1        Z2
   1                    0.59963  -0.28543  -0.28543  -0.28543  -0.28543
                          Z4        X7        X3        X2        X5
   1                   -0.28543   0.25806  -0.16544  -0.16544  -0.16544
 Eigenvalue     3 is   6.87D-09 Eigenvector:
                          Z5        Y2        Y3        Z4        Y7
   1                    0.52837  -0.35265  -0.34192  -0.32331   0.27607
                          X4        Y4        Z2        X3        X2
   1                   -0.26390   0.26249  -0.24027   0.18192   0.13979
 Eigenvalue     4 is   3.64D-07 Eigenvector:
                          X5        Y2        Y6        X4        Y7
   1                    0.40956  -0.39150   0.39012  -0.38426  -0.37746
                          Y3        Z2        X7        X2        Y5
   1                    0.31139  -0.17807  -0.16304   0.13076   0.12960
 Eigenvalue     5 is   2.87D-06 Eigenvector:
                          Z2        X3        Z3        Y2        X5
   1                    0.54569  -0.48411  -0.34351  -0.32667   0.27107
                          X2        X4        Y4        Z4        Y3
   1                   -0.21438   0.18847   0.12739  -0.11831  -0.10200
 Quadratic step=2.482D+02 exceeds max=3.000D-01 adjusted using Lamda=-9.991D-02.
 Angle between NR and scaled steps=  34.16 degrees.
 Angle between quadratic step and forces=  59.98 degrees.
 Linear search not attempted -- first point.
 B after Tr=     0.009089    0.028887   -0.062563
         Rot=    1.000000   -0.000523    0.000092   -0.000168 Ang=  -0.06 deg.
 Variable       Old X    -DE/DX   Delta X   Delta X   Delta X     New X
                                 (Linear)    (Quad)   (Total)
    X1       34.15680   0.00527   0.00000   0.03824   0.03015  34.18695
    Y1       27.36002  -0.02546   0.00000   0.00281  -0.00261  27.35741
    Z1       43.67630  -0.00474   0.00000   0.05880   0.03109  43.70739
    X2       32.24100   0.01371   0.00000   0.04551   0.03762  32.27862
    Y2       27.14081   0.00418   0.00000   0.01734   0.01202  27.15283
    Z2       42.90869   0.01573   0.00000   0.12376   0.09549  43.00418
    X3       35.37303  -0.00021   0.00000   0.00248  -0.00559  35.36744
    Y3       28.17563  -0.00514   0.00000  -0.02618  -0.02962  28.14601
    Z3       42.22026  -0.00562   0.00000   0.00396  -0.02270  42.19756
    X4       34.19308  -0.00152   0.00000   0.02485   0.01603  34.20911
    Y4       28.72799  -0.00102   0.00000  -0.02230  -0.02933  28.69866
    Z4       45.17617   0.01897   0.00000   0.11172   0.08542  45.26160
    X5       34.89795  -0.00786   0.00000   0.00417  -0.00337  34.89458
    Y5       25.39357   0.02987   0.00000   0.07845   0.07274  25.46631
    Z5       44.19068  -0.00047   0.00000   0.05063   0.02107  44.21175
    X6       29.86599  -0.21071   0.00000  -0.08643  -0.09388  29.77211
    Y6       27.62269   0.07988   0.00000   0.03501   0.03234  27.65504
    Z6       39.66252   0.03315   0.00000   0.02400  -0.00420  39.65832
    X7       31.88138   0.20130   0.00000   0.02609   0.01903  31.90041
    Y7       26.85093  -0.08230   0.00000  -0.05417  -0.05554  26.79539
    Z7       39.31330  -0.05702   0.00000  -0.17747  -0.20618  39.10711
         Item               Value     Threshold  Converged?
 Maximum Force            0.210707     0.000450     NO 
 RMS     Force            0.070694     0.000300     NO 
 Maximum Displacement     0.206185     0.001800     NO 
 RMS     Displacement     0.063239     0.001200     NO 
 Predicted change in Energy=-2.881613D-02
 GradGradGradGradGradGradGradGradGradGradGradGradGradGradGradGradGradGrad

 1\1\GINC-H11R13\Force\UB3LYP\3-21G*\C1H4O2(3)\ACKGYDJ0BD\08-Jul-2026\0
 \\#force b3lyp/3-21G* Geom=PrintInputOrient\\Generated by MDDatasetMak
 er (Author: Jinzhe Zeng)\\0,3\C,18.075,14.4783,23.1125\H,17.0612,14.36
 23,22.7063\H,18.7186,14.9099,22.342\H,18.0942,15.2022,23.9062\H,18.467
 2,13.4377,23.3847\O,15.8044,14.6173,20.9885\O,16.8709,14.2089,20.8037\
 \Version=EM64L-G16RevB.01\State=3-A\HF=-189.7444544\S2=2.004234\S2-1=0
 .\S2A=2.000009\RMSD=5.498e-09\RMSF=7.069e-02\Dipole=-0.0313266,0.00804
 63,-0.1238153\Quadrupole=-0.4416596,0.46014,-0.0184804,0.3398859,0.040
 9744,0.0286776\PG=C01 [X(C1H4O2)]\\@


 TIME GOES, YOU SAY?  AH NO!
 ALAS, TIME STAYS, WE GO.
    -- A. DOBSON (1840-1921)
 Job cpu time:       0 days  0 hours  2 minutes 59.6 seconds.
 Elapsed time:       0 days  0 hours  0 minutes  3.5 seconds.
 File lengths (MBytes):  RWF=      6 Int=      0 D2E=      0 Chk=      1 Scr=      1
 Normal termination of Gaussian 16 at Wed Jul  8 17:33:34 2026.
