 Entering Gaussian System, Link 0=g16
 Input=data_C1111_04.gjf
 Output=data_C1111_04.log
 Initial command:
 /work/home/ackgydj0bd/apprepo/gaussian/16b.01-none_v1.3/app/g16/l1.exe "/work/home/ackgydj0bd/apprepo/gaussian/16b.01-none_v1.3/app/g16/scratch/Gau-27989.inp" -scrdir="/work/home/ackgydj0bd/apprepo/gaussian/16b.01-none_v1.3/app/g16/scratch/"
 Entering Link 1 = /work/home/ackgydj0bd/apprepo/gaussian/16b.01-none_v1.3/app/g16/l1.exe PID=     27990.
  
 Copyright (c) 1988-2017, Gaussian, Inc.  All Rights Reserved.
  
 This is part of the Gaussian(R) 16 program.  It is based on
 the Gaussian(R) 09 system (copyright 2009, Gaussian, Inc.),
 the Gaussian(R) 03 system (copyright 2003, Gaussian, Inc.),
 the Gaussian(R) 98 system (copyright 1998, Gaussian, Inc.),
 the Gaussian(R) 94 system (copyright 1995, Gaussian, Inc.),
 the Gaussian 92(TM) system (copyright 1992, Gaussian, Inc.),
 the Gaussian 90(TM) system (copyright 1990, Gaussian, Inc.),
 the Gaussian 88(TM) system (copyright 1988, Gaussian, Inc.),
 the Gaussian 86(TM) system (copyright 1986, Carnegie Mellon
 University), and the Gaussian 82(TM) system (copyright 1983,
 Carnegie Mellon University). Gaussian is a federally registered
 trademark of Gaussian, Inc.
  
 This software contains proprietary and confidential information,
 including trade secrets, belonging to Gaussian, Inc.
  
 This software is provided under written license and may be
 used, copied, transmitted, or stored only in accord with that
 written license.
  
 The following legend is applicable only to US Government
 contracts under FAR:
  
                    RESTRICTED RIGHTS LEGEND
  
 Use, reproduction and disclosure by the US Government is
 subject to restrictions as set forth in subparagraphs (a)
 and (c) of the Commercial Computer Software - Restricted
 Rights clause in FAR 52.227-19.
  
 Gaussian, Inc.
 340 Quinnipiac St., Bldg. 40, Wallingford CT 06492
  
  
 ---------------------------------------------------------------
 Warning -- This program may not be used in any manner that
 competes with the business of Gaussian, Inc. or will provide
 assistance to any competitor of Gaussian, Inc.  The licensee
 of this program is prohibited from giving any competitor of
 Gaussian, Inc. access to this program.  By using this program,
 the user acknowledges that Gaussian, Inc. is engaged in the
 business of creating and licensing software in the field of
 computational chemistry and represents and warrants to the
 licensee that it is not a competitor of Gaussian, Inc. and that
 it will not use this program in any manner prohibited above.
 ---------------------------------------------------------------
  

 Cite this work as:
 Gaussian 16, Revision B.01,
 M. J. Frisch, G. W. Trucks, H. B. Schlegel, G. E. Scuseria, 
 M. A. Robb, J. R. Cheeseman, G. Scalmani, V. Barone, 
 G. A. Petersson, H. Nakatsuji, X. Li, M. Caricato, A. V. Marenich, 
 J. Bloino, B. G. Janesko, R. Gomperts, B. Mennucci, H. P. Hratchian, 
 J. V. Ortiz, A. F. Izmaylov, J. L. Sonnenberg, D. Williams-Young, 
 F. Ding, F. Lipparini, F. Egidi, J. Goings, B. Peng, A. Petrone, 
 T. Henderson, D. Ranasinghe, V. G. Zakrzewski, J. Gao, N. Rega, 
 G. Zheng, W. Liang, M. Hada, M. Ehara, K. Toyota, R. Fukuda, 
 J. Hasegawa, M. Ishida, T. Nakajima, Y. Honda, O. Kitao, H. Nakai, 
 T. Vreven, K. Throssell, J. A. Montgomery, Jr., J. E. Peralta, 
 F. Ogliaro, M. J. Bearpark, J. J. Heyd, E. N. Brothers, K. N. Kudin, 
 V. N. Staroverov, T. A. Keith, R. Kobayashi, J. Normand, 
 K. Raghavachari, A. P. Rendell, J. C. Burant, S. S. Iyengar, 
 J. Tomasi, M. Cossi, J. M. Millam, M. Klene, C. Adamo, R. Cammi, 
 J. W. Ochterski, R. L. Martin, K. Morokuma, O. Farkas, 
 J. B. Foresman, and D. J. Fox, Gaussian, Inc., Wallingford CT, 2016.
 
 ******************************************
 Gaussian 16:  EM64L-G16RevB.01 20-Dec-2017
                 8-Jul-2026 
 ******************************************
 %nproc=64
 Will use up to   64 processors via shared memory.
 %mem=128GB
 -----------------------------------------
 #force b3lyp/3-21G* Geom=PrintInputOrient
 -----------------------------------------
 1/10=7,30=1,38=1/1,3;
 2/9=2000,12=2,17=6,18=5,40=1/2;
 3/5=5,7=1,11=2,25=1,30=1,71=1,74=-5/1,2,3;
 4//1;
 5/5=2,38=5/2;
 6/7=2,8=2,9=2,10=2,28=1/1;
 7/29=1/1,2,3,16;
 1/10=7,30=1/3;
 99//99;
 -------------------------------------------------
 Generated by MDDatasetMaker (Author: Jinzhe Zeng)
 -------------------------------------------------
 Symbolic Z-matrix:
 Charge =  0 Multiplicity = 1
 C                     19.1251   15.311    2.26044 
 H                     19.45     14.4286   2.80807 
 H                     19.6247   16.344    2.56723 
 H                     18.0261   15.5376   2.37321 
 H                     19.1677   15.0422   1.25377 
 

 GradGradGradGradGradGradGradGradGradGradGradGradGradGradGradGradGradGrad
 Berny optimization.
 Initialization pass.
 Trust Radius=3.00D-01 FncErr=1.00D-07 GrdErr=1.00D-07 EigMax=2.50D+02 EigMin=1.00D-04
 Number of steps in this run=      2 maximum allowed number of steps=      2.
 GradGradGradGradGradGradGradGradGradGradGradGradGradGradGradGradGradGrad

                          Input orientation:                          
 ---------------------------------------------------------------------
 Center     Atomic      Atomic             Coordinates (Angstroms)
 Number     Number       Type             X           Y           Z
 ---------------------------------------------------------------------
      1          6           0       19.125100   15.311000    2.260440
      2          1           0       19.450000   14.428600    2.808070
      3          1           0       19.624700   16.344000    2.567230
      4          1           0       18.026100   15.537600    2.373210
      5          1           0       19.167700   15.042200    1.253770
 ---------------------------------------------------------------------
                    Distance matrix (angstroms):
                    1          2          3          4          5
     1  C    0.000000
     2  H    1.088158   0.000000
     3  H    1.187775   1.938371   0.000000
     4  H    1.127770   1.856469   1.800957   0.000000
     5  H    1.042810   1.694711   1.904917   1.673863   0.000000
 Stoichiometry    CH4
 Framework group  C1[X(CH4)]
 Deg. of freedom     9
 Full point group                 C1      NOp   1
 Largest Abelian subgroup         C1      NOp   1
 Largest concise Abelian subgroup C1      NOp   1
                         Standard orientation:                         
 ---------------------------------------------------------------------
 Center     Atomic      Atomic             Coordinates (Angstroms)
 Number     Number       Type             X           Y           Z
 ---------------------------------------------------------------------
      1          6           0        0.009191   -0.023223    0.006862
      2          1           0        0.738543   -0.695980   -0.439828
      3          1           0       -1.076433   -0.464643    0.200193
      4          1           0       -0.214338    0.887030   -0.620306
      5          1           0        0.497079    0.412930    0.818767
 ---------------------------------------------------------------------
 Rotational constants (GHZ):         169.8699924         152.5502776         136.9775152
 Standard basis: 3-21G* (6D, 7F)
 There are    17 symmetry adapted cartesian basis functions of A   symmetry.
 There are    17 symmetry adapted basis functions of A   symmetry.
    17 basis functions,    27 primitive gaussians,    17 cartesian basis functions
     5 alpha electrons        5 beta electrons
       nuclear repulsion energy        13.2090816679 Hartrees.
 NAtoms=    5 NActive=    5 NUniq=    5 SFac= 1.00D+00 NAtFMM=   60 NAOKFM=F Big=F
 Integral buffers will be    131072 words long.
 Raffenetti 2 integral format.
 Two-electron integral symmetry is turned on.
 One-electron integrals computed using PRISM.
 NBasis=    17 RedAO= T EigKep=  3.50D-02  NBF=    17
 NBsUse=    17 1.00D-06 EigRej= -1.00D+00 NBFU=    17
 ExpMin= 1.83D-01 ExpMax= 1.72D+02 ExpMxC= 1.72D+02 IAcc=3 IRadAn=         5 AccDes= 0.00D+00
 Harris functional with IExCor=  402 and IRadAn=       5 diagonalized for initial guess.
 HarFok:  IExCor=  402 AccDes= 0.00D+00 IRadAn=         5 IDoV= 1 UseB2=F ITyADJ=14
 ICtDFT=  3500011 ScaDFX=  1.000000  1.000000  1.000000  1.000000
 FoFCou: FMM=F IPFlag=           0 FMFlag=      100000 FMFlg1=           0
         NFxFlg=           0 DoJE=T BraDBF=F KetDBF=T FulRan=T
         wScrn=  0.000000 ICntrl=       500 IOpCl=  0 I1Cent=   200000004 NGrid=           0
         NMat0=    1 NMatS0=      1 NMatT0=    0 NMatD0=    1 NMtDS0=    0 NMtDT0=    0
 Petite list used in FoFCou.
 Keep R1 ints in memory in canonical form, NReq=55236554.
 Requested convergence on RMS density matrix=1.00D-08 within 128 cycles.
 Requested convergence on MAX density matrix=1.00D-06.
 Requested convergence on             energy=1.00D-06.
 No special actions if energy rises.
 Integral accuracy reduced to 1.0D-05 until final iterations.
 Initial convergence to 1.0D-05 achieved.  Increase integral accuracy.
 SCF Done:  E(RB3LYP) =  -40.2881699884     A.U. after    9 cycles
            NFock=  9  Conv=0.44D-08     -V/T= 2.0122

 **********************************************************************

            Population analysis using the SCF Density.

 **********************************************************************

 Orbital symmetries:
       Occupied  (A) (A) (A) (A) (A)
       Virtual   (A) (A) (A) (A) (A) (A) (A) (A) (A) (A) (A) (A)
 The electronic state is 1-A.
 Alpha  occ. eigenvalues --  -10.10733  -0.68826  -0.40328  -0.39313  -0.35848
 Alpha virt. eigenvalues --    0.13132   0.16401   0.19700   0.20346   0.68012
 Alpha virt. eigenvalues --    0.72160   0.76128   0.97296   1.01979   1.05562
 Alpha virt. eigenvalues --    1.09512   1.68311
          Condensed to atoms (all electrons):
               1          2          3          4          5
     1  C    5.293540   0.371967   0.364573   0.357313   0.363860
     2  H    0.371967   0.506665  -0.016882  -0.019768  -0.036331
     3  H    0.364573  -0.016882   0.531822  -0.030660  -0.016489
     4  H    0.357313  -0.019768  -0.030660   0.551248  -0.038542
     5  H    0.363860  -0.036331  -0.016489  -0.038542   0.518643
 Mulliken charges:
               1
     1  C   -0.751253
     2  H    0.194350
     3  H    0.167636
     4  H    0.180409
     5  H    0.208858
 Sum of Mulliken charges =   0.00000
 Mulliken charges with hydrogens summed into heavy atoms:
               1
     1  C    0.000000
 Electronic spatial extent (au):  <R**2>=             36.1795
 Charge=              0.0000 electrons
 Dipole moment (field-independent basis, Debye):
    X=              0.0777    Y=              0.1357    Z=              0.0162  Tot=              0.1573
 Quadrupole moment (field-independent basis, Debye-Ang):
   XX=             -7.8450   YY=             -8.2959   ZZ=             -8.7578
   XY=             -0.0500   XZ=              0.0508   YZ=              0.1189
 Traceless Quadrupole moment (field-independent basis, Debye-Ang):
   XX=              0.4546   YY=              0.0037   ZZ=             -0.4582
   XY=             -0.0500   XZ=              0.0508   YZ=              0.1189
 Octapole moment (field-independent basis, Debye-Ang**2):
  XXX=             -0.2443  YYY=              0.5061  ZZZ=              0.2476  XYY=              0.2022
  XXY=             -0.5490  XXZ=              0.1398  XZZ=              0.3824  YZZ=              0.3542
  YYZ=             -0.2908  XYZ=              0.4509
 Hexadecapole moment (field-independent basis, Debye-Ang**3):
 XXXX=            -15.7514 YYYY=            -15.5191 ZZZZ=            -14.4475 XXXY=              0.2631
 XXXZ=             -0.2364 YYYX=             -0.3977 YYYZ=             -0.0236 ZZZX=              0.3666
 ZZZY=              0.3023 XXYY=             -5.0608 XXZZ=             -5.1213 YYZZ=             -4.7289
 XXYZ=              0.2087 YYXZ=              0.0135 ZZXY=             -0.0585
 N-N= 1.320908166785D+01 E-N=-1.188997038209D+02  KE= 3.980180442213D+01
 Calling FoFJK, ICntrl=      2127 FMM=F ISym2X=0 I1Cent= 0 IOpClX= 0 NMat=1 NMatS=1 NMatT=0.
 ***** Axes restored to original set *****
 -------------------------------------------------------------------
 Center     Atomic                   Forces (Hartrees/Bohr)
 Number     Number              X              Y              Z
 -------------------------------------------------------------------
      1        6          -0.023235504    0.050848875    0.034898992
      2        1          -0.000471190    0.006432843    0.012778338
      3        1          -0.008173552   -0.048143621   -0.016850703
      4        1           0.014878941   -0.011497738    0.011056352
      5        1           0.017001306    0.002359641   -0.041882978
 -------------------------------------------------------------------
 Cartesian Forces:  Max     0.050848875 RMS     0.025483991

 GradGradGradGradGradGradGradGradGradGradGradGradGradGradGradGradGradGrad
 Berny optimization.
 Search for a local minimum.
 Step number   1 out of a maximum of    2
 All quantities printed in internal units (Hartrees-Bohrs-Radians)
 Second derivative matrix not updated -- first step.
 The second derivative matrix:
                          X1        Y1        Z1        X2        Y2
           X1           0.56334
           Y1          -0.03818   0.67478
           Z1           0.04002   0.01028   0.68214
           X2          -0.09972   0.05657  -0.04445   0.08057
           Y2           0.06357  -0.26484   0.11084  -0.06885   0.25237
           Z2          -0.04621   0.10409  -0.14530   0.04907  -0.11689
           X3          -0.09574  -0.06544  -0.02604   0.01278   0.01074
           Y3          -0.06989  -0.21409  -0.03806  -0.01047  -0.00928
           Z3          -0.02531  -0.03385  -0.08522   0.01446   0.01377
           X4          -0.29747   0.04630   0.02446   0.00352   0.00056
           Y4           0.04159  -0.08252  -0.00249   0.02723   0.00409
           Z4           0.01795  -0.00163  -0.06449  -0.02040  -0.00275
           X5          -0.07041   0.00075   0.00600   0.00285  -0.00603
           Y5           0.00292  -0.11333  -0.08057  -0.00447   0.01766
           Z5           0.01355  -0.07889  -0.38713   0.00132  -0.00497
                          Z2        X3        Y3        Z3        X4
           Z2           0.13281
           X3           0.00973   0.08393
           Y3          -0.00875   0.07511   0.20629
           Z3           0.01360   0.02697   0.04436   0.06252
           X4          -0.00119  -0.00674   0.00290   0.00122   0.29524
           Y4          -0.00957  -0.02832   0.01224   0.00490  -0.04893
           Z4           0.00768  -0.00879   0.00365   0.00204  -0.02495
           X5          -0.01140   0.00578   0.00236  -0.01734   0.00545
           Y5           0.03112   0.00790   0.00484  -0.02918  -0.00083
           Z5          -0.00879  -0.00187  -0.00119   0.00706   0.00045
                          Y4        Z4        X5        Y5        Z5
           Y4           0.06737
           Z4           0.00649   0.05170
           X5           0.00843   0.03619   0.05633
           Y5          -0.00118  -0.00575  -0.00551   0.09200
           Z5           0.00067   0.00307  -0.01345   0.08438   0.38579
 ITU=  0
     Eigenvalues ---    0.10244   0.10696   0.12571   0.13270   0.14475
     Eigenvalues ---    0.31474   0.66108   0.81755   0.87722
 Quadratic step=3.922D-01 exceeds max=3.000D-01 adjusted using Lamda=-4.090D-02.
 Angle between NR and scaled steps=   4.42 degrees.
 Angle between quadratic step and forces=  44.09 degrees.
 Linear search not attempted -- first point.
 B after Tr=    -0.010374    0.005241   -0.001711
         Rot=    1.000000    0.000017    0.000026   -0.000037 Ang=   0.01 deg.
 Variable       Old X    -DE/DX   Delta X   Delta X   Delta X     New X
                                 (Linear)    (Quad)   (Total)
    X1       36.14120  -0.02324   0.00000  -0.04396  -0.05670  36.08450
    Y1       28.93360   0.05085   0.00000   0.02779   0.03585  28.96945
    Z1        4.27161   0.03490   0.00000  -0.00275  -0.00355   4.26806
    X2       36.75517  -0.00047   0.00000  -0.01728  -0.02996  36.72521
    Y2       27.26610   0.00643   0.00000   0.07923   0.08738  27.35348
    Z2        5.30648   0.01278   0.00000   0.07919   0.07848   5.38496
    X3       37.08531  -0.00817   0.00000   0.00962  -0.00328  37.08203
    Y3       30.88568  -0.04814   0.00000  -0.17254  -0.16439  30.72129
    Z3        4.85136  -0.01685   0.00000  -0.06673  -0.06753   4.78383
    X4       34.06439   0.01488   0.00000   0.00381  -0.00898  34.05542
    Y4       29.36181  -0.01150   0.00000  -0.04858  -0.04066  29.32115
    Z4        4.48472   0.01106   0.00000   0.09679   0.09588   4.58059
    X5       36.22170   0.01700   0.00000   0.11153   0.09892  36.32063
    Y5       28.42564   0.00236   0.00000   0.07381   0.08182  28.50745
    Z5        2.36928  -0.04188   0.00000  -0.10250  -0.10327   2.26601
         Item               Value     Threshold  Converged?
 Maximum Force            0.050849     0.000450     NO 
 RMS     Force            0.025484     0.000300     NO 
 Maximum Displacement     0.164390     0.001800     NO 
 RMS     Displacement     0.076973     0.001200     NO 
 Predicted change in Energy=-1.247547D-02
 GradGradGradGradGradGradGradGradGradGradGradGradGradGradGradGradGradGrad

 1\1\GINC-H11R13\Force\RB3LYP\3-21G*\C1H4\ACKGYDJ0BD\08-Jul-2026\0\\#fo
 rce b3lyp/3-21G* Geom=PrintInputOrient\\Generated by MDDatasetMaker (A
 uthor: Jinzhe Zeng)\\0,1\C,19.1251,15.311,2.26044\H,19.45,14.4286,2.80
 807\H,19.6247,16.344,2.56723\H,18.0261,15.5376,2.37321\H,19.1677,15.04
 22,1.25377\\Version=EM64L-G16RevB.01\State=1-A\HF=-40.28817\RMSD=4.408
 e-09\RMSF=2.548e-02\Dipole=-0.042818,-0.0214197,-0.0391892\Quadrupole=
 -0.1718288,0.310179,-0.1383502,-0.0834917,0.1791254,0.1194516\PG=C01 [
 X(C1H4)]\\@


 READER, WHETHER YOU BE DILETTANTE OR PROFESSOR ... SHOW YOURSELF TO BE
 MORE HUMAN THAN CRITICAL, AND THEN YOUR PLEASURE WILL INCREASE.
                                           -- DOMENICO SCARLATTI (1738)
 Job cpu time:       0 days  0 hours  2 minutes 25.8 seconds.
 Elapsed time:       0 days  0 hours  0 minutes  3.0 seconds.
 File lengths (MBytes):  RWF=      6 Int=      0 D2E=      0 Chk=      1 Scr=      1
 Normal termination of Gaussian 16 at Wed Jul  8 17:31:38 2026.
