 Entering Gaussian System, Link 0=g16
 Input=data_H1_04.gjf
 Output=data_H1_04.log
 Initial command:
 /work/home/ackgydj0bd/apprepo/gaussian/16b.01-none_v1.3/app/g16/l1.exe "/work/home/ackgydj0bd/apprepo/gaussian/16b.01-none_v1.3/app/g16/scratch/Gau-38972.inp" -scrdir="/work/home/ackgydj0bd/apprepo/gaussian/16b.01-none_v1.3/app/g16/scratch/"
 Entering Link 1 = /work/home/ackgydj0bd/apprepo/gaussian/16b.01-none_v1.3/app/g16/l1.exe PID=     38973.
  
 Copyright (c) 1988-2017, Gaussian, Inc.  All Rights Reserved.
  
 This is part of the Gaussian(R) 16 program.  It is based on
 the Gaussian(R) 09 system (copyright 2009, Gaussian, Inc.),
 the Gaussian(R) 03 system (copyright 2003, Gaussian, Inc.),
 the Gaussian(R) 98 system (copyright 1998, Gaussian, Inc.),
 the Gaussian(R) 94 system (copyright 1995, Gaussian, Inc.),
 the Gaussian 92(TM) system (copyright 1992, Gaussian, Inc.),
 the Gaussian 90(TM) system (copyright 1990, Gaussian, Inc.),
 the Gaussian 88(TM) system (copyright 1988, Gaussian, Inc.),
 the Gaussian 86(TM) system (copyright 1986, Carnegie Mellon
 University), and the Gaussian 82(TM) system (copyright 1983,
 Carnegie Mellon University). Gaussian is a federally registered
 trademark of Gaussian, Inc.
  
 This software contains proprietary and confidential information,
 including trade secrets, belonging to Gaussian, Inc.
  
 This software is provided under written license and may be
 used, copied, transmitted, or stored only in accord with that
 written license.
  
 The following legend is applicable only to US Government
 contracts under FAR:
  
                    RESTRICTED RIGHTS LEGEND
  
 Use, reproduction and disclosure by the US Government is
 subject to restrictions as set forth in subparagraphs (a)
 and (c) of the Commercial Computer Software - Restricted
 Rights clause in FAR 52.227-19.
  
 Gaussian, Inc.
 340 Quinnipiac St., Bldg. 40, Wallingford CT 06492
  
  
 ---------------------------------------------------------------
 Warning -- This program may not be used in any manner that
 competes with the business of Gaussian, Inc. or will provide
 assistance to any competitor of Gaussian, Inc.  The licensee
 of this program is prohibited from giving any competitor of
 Gaussian, Inc. access to this program.  By using this program,
 the user acknowledges that Gaussian, Inc. is engaged in the
 business of creating and licensing software in the field of
 computational chemistry and represents and warrants to the
 licensee that it is not a competitor of Gaussian, Inc. and that
 it will not use this program in any manner prohibited above.
 ---------------------------------------------------------------
  

 Cite this work as:
 Gaussian 16, Revision B.01,
 M. J. Frisch, G. W. Trucks, H. B. Schlegel, G. E. Scuseria, 
 M. A. Robb, J. R. Cheeseman, G. Scalmani, V. Barone, 
 G. A. Petersson, H. Nakatsuji, X. Li, M. Caricato, A. V. Marenich, 
 J. Bloino, B. G. Janesko, R. Gomperts, B. Mennucci, H. P. Hratchian, 
 J. V. Ortiz, A. F. Izmaylov, J. L. Sonnenberg, D. Williams-Young, 
 F. Ding, F. Lipparini, F. Egidi, J. Goings, B. Peng, A. Petrone, 
 T. Henderson, D. Ranasinghe, V. G. Zakrzewski, J. Gao, N. Rega, 
 G. Zheng, W. Liang, M. Hada, M. Ehara, K. Toyota, R. Fukuda, 
 J. Hasegawa, M. Ishida, T. Nakajima, Y. Honda, O. Kitao, H. Nakai, 
 T. Vreven, K. Throssell, J. A. Montgomery, Jr., J. E. Peralta, 
 F. Ogliaro, M. J. Bearpark, J. J. Heyd, E. N. Brothers, K. N. Kudin, 
 V. N. Staroverov, T. A. Keith, R. Kobayashi, J. Normand, 
 K. Raghavachari, A. P. Rendell, J. C. Burant, S. S. Iyengar, 
 J. Tomasi, M. Cossi, J. M. Millam, M. Klene, C. Adamo, R. Cammi, 
 J. W. Ochterski, R. L. Martin, K. Morokuma, O. Farkas, 
 J. B. Foresman, and D. J. Fox, Gaussian, Inc., Wallingford CT, 2016.
 
 ******************************************
 Gaussian 16:  EM64L-G16RevB.01 20-Dec-2017
                 8-Jul-2026 
 ******************************************
 %nproc=64
 Will use up to   64 processors via shared memory.
 %mem=128GB
 -----------------------------------------
 #force b3lyp/3-21G* Geom=PrintInputOrient
 -----------------------------------------
 1/10=7,30=1,38=1/1,3;
 2/9=2000,12=2,17=6,18=5,40=1/2;
 3/5=5,7=1,11=2,25=1,30=1,71=1,74=-5/1,2,3;
 4//1;
 5/5=2,38=5/2;
 6/7=2,8=2,9=2,10=2,28=1/1;
 7/29=1/1,2,3,16;
 1/10=7,30=1/3;
 99//99;
 -------------------------------------------------
 Generated by MDDatasetMaker (Author: Jinzhe Zeng)
 -------------------------------------------------
 Symbolic Z-matrix:
 Charge =  0 Multiplicity = 1
 C                    -0.15418   15.3779   12.8672 
 H                    -0.50779   16.2894   12.2704 
 H                     0.1023    14.598    12.1356 
 H                    -0.9153    15.0445   13.6353 
 H                     0.67637   15.7859   13.5621 
 

 GradGradGradGradGradGradGradGradGradGradGradGradGradGradGradGradGradGrad
 Berny optimization.
 Initialization pass.
 Trust Radius=3.00D-01 FncErr=1.00D-07 GrdErr=1.00D-07 EigMax=2.50D+02 EigMin=1.00D-04
 Number of steps in this run=      2 maximum allowed number of steps=      2.
 GradGradGradGradGradGradGradGradGradGradGradGradGradGradGradGradGradGrad

                          Input orientation:                          
 ---------------------------------------------------------------------
 Center     Atomic      Atomic             Coordinates (Angstroms)
 Number     Number       Type             X           Y           Z
 ---------------------------------------------------------------------
      1          6           0       -0.154180   15.377900   12.867200
      2          1           0       -0.507790   16.289400   12.270400
      3          1           0        0.102300   14.598000   12.135600
      4          1           0       -0.915300   15.044500   13.635300
      5          1           0        0.676370   15.785900   13.562100
 ---------------------------------------------------------------------
                    Distance matrix (angstroms):
                    1          2          3          4          5
     1  C    0.000000
     2  H    1.145444   0.000000
     3  H    1.099666   1.803113   0.000000
     4  H    1.131564   1.891770   1.866540   0.000000
     5  H    1.157222   1.823249   1.943081   1.757397   0.000000
 Stoichiometry    CH4
 Framework group  C1[X(CH4)]
 Deg. of freedom     9
 Full point group                 C1      NOp   1
 Largest Abelian subgroup         C1      NOp   1
 Largest concise Abelian subgroup C1      NOp   1
                         Standard orientation:                         
 ---------------------------------------------------------------------
 Center     Atomic      Atomic             Coordinates (Angstroms)
 Number     Number       Type             X           Y           Z
 ---------------------------------------------------------------------
      1          6           0       -0.017251   -0.015914   -0.007948
      2          1           0       -0.432198    0.887789    0.560544
      3          1           0       -0.877986   -0.532739   -0.456603
      4          1           0        0.618451   -0.682920    0.648879
      5          1           0        0.795239    0.423355   -0.705132
 ---------------------------------------------------------------------
 Rotational constants (GHZ):         158.6075258         146.7529556         135.6940779
 Standard basis: 3-21G* (6D, 7F)
 There are    17 symmetry adapted cartesian basis functions of A   symmetry.
 There are    17 symmetry adapted basis functions of A   symmetry.
    17 basis functions,    27 primitive gaussians,    17 cartesian basis functions
     5 alpha electrons        5 beta electrons
       nuclear repulsion energy        12.9292099716 Hartrees.
 NAtoms=    5 NActive=    5 NUniq=    5 SFac= 1.00D+00 NAtFMM=   60 NAOKFM=F Big=F
 Integral buffers will be    131072 words long.
 Raffenetti 2 integral format.
 Two-electron integral symmetry is turned on.
 One-electron integrals computed using PRISM.
 NBasis=    17 RedAO= T EigKep=  3.90D-02  NBF=    17
 NBsUse=    17 1.00D-06 EigRej= -1.00D+00 NBFU=    17
 ExpMin= 1.83D-01 ExpMax= 1.72D+02 ExpMxC= 1.72D+02 IAcc=3 IRadAn=         5 AccDes= 0.00D+00
 Harris functional with IExCor=  402 and IRadAn=       5 diagonalized for initial guess.
 HarFok:  IExCor=  402 AccDes= 0.00D+00 IRadAn=         5 IDoV= 1 UseB2=F ITyADJ=14
 ICtDFT=  3500011 ScaDFX=  1.000000  1.000000  1.000000  1.000000
 FoFCou: FMM=F IPFlag=           0 FMFlag=      100000 FMFlg1=           0
         NFxFlg=           0 DoJE=T BraDBF=F KetDBF=T FulRan=T
         wScrn=  0.000000 ICntrl=       500 IOpCl=  0 I1Cent=   200000004 NGrid=           0
         NMat0=    1 NMatS0=      1 NMatT0=    0 NMatD0=    1 NMtDS0=    0 NMtDT0=    0
 Petite list used in FoFCou.
 Keep R1 ints in memory in canonical form, NReq=55236554.
 Requested convergence on RMS density matrix=1.00D-08 within 128 cycles.
 Requested convergence on MAX density matrix=1.00D-06.
 Requested convergence on             energy=1.00D-06.
 No special actions if energy rises.
 Integral accuracy reduced to 1.0D-05 until final iterations.
 Initial convergence to 1.0D-05 achieved.  Increase integral accuracy.
 SCF Done:  E(RB3LYP) =  -40.2925200751     A.U. after    9 cycles
            NFock=  9  Conv=0.54D-08     -V/T= 2.0154

 **********************************************************************

            Population analysis using the SCF Density.

 **********************************************************************

 Orbital symmetries:
       Occupied  (A) (A) (A) (A) (A)
       Virtual   (A) (A) (A) (A) (A) (A) (A) (A) (A) (A) (A) (A)
 The electronic state is 1-A.
 Alpha  occ. eigenvalues --  -10.11642  -0.67894  -0.40562  -0.38163  -0.35821
 Alpha virt. eigenvalues --    0.13144   0.16163   0.18003   0.19588   0.71113
 Alpha virt. eigenvalues --    0.72900   0.75226   0.97841   1.00399   1.02333
 Alpha virt. eigenvalues --    1.04891   1.67171
          Condensed to atoms (all electrons):
               1          2          3          4          5
     1  C    5.285300   0.358665   0.370271   0.360621   0.357307
     2  H    0.358665   0.540548  -0.029635  -0.019828  -0.028030
     3  H    0.370271  -0.029635   0.502883  -0.022381  -0.015423
     4  H    0.360621  -0.019828  -0.022381   0.533188  -0.035494
     5  H    0.357307  -0.028030  -0.015423  -0.035494   0.545935
 Mulliken charges:
               1
     1  C   -0.732164
     2  H    0.178280
     3  H    0.194286
     4  H    0.183893
     5  H    0.175705
 Sum of Mulliken charges =   0.00000
 Mulliken charges with hydrogens summed into heavy atoms:
               1
     1  C    0.000000
 Electronic spatial extent (au):  <R**2>=             36.9715
 Charge=              0.0000 electrons
 Dipole moment (field-independent basis, Debye):
    X=              0.0317    Y=              0.0211    Z=              0.0238  Tot=              0.0449
 Quadrupole moment (field-independent basis, Debye-Ang):
   XX=             -7.9391   YY=             -8.3574   ZZ=             -8.7681
   XY=              0.0355   XZ=              0.0831   YZ=              0.0279
 Traceless Quadrupole moment (field-independent basis, Debye-Ang):
   XX=              0.4158   YY=             -0.0025   ZZ=             -0.4133
   XY=              0.0355   XZ=              0.0831   YZ=              0.0279
 Octapole moment (field-independent basis, Debye-Ang**2):
  XXX=             -0.0767  YYY=              0.2012  ZZZ=              0.0563  XYY=             -0.1429
  XXY=             -0.2511  XXZ=             -0.3429  XZZ=              0.1993  YZZ=              0.0287
  YYZ=              0.3425  XYZ=             -0.7004
 Hexadecapole moment (field-independent basis, Debye-Ang**3):
 XXXX=            -16.2667 YYYY=            -15.9969 ZZZZ=            -15.6713 XXXY=              0.4549
 XXXZ=              0.2411 YYYX=             -0.2622 YYYZ=              0.2759 ZZZX=              0.0618
 ZZZY=             -0.0775 XXYY=             -5.0485 XXZZ=             -4.9032 YYZZ=             -4.9233
 XXYZ=             -0.0731 YYXZ=              0.0612 ZZXY=             -0.0167
 N-N= 1.292920997164D+01 E-N=-1.182657585122D+02  KE= 3.968163864749D+01
 Calling FoFJK, ICntrl=      2127 FMM=F ISym2X=0 I1Cent= 0 IOpClX= 0 NMat=1 NMatS=1 NMatT=0.
 ***** Axes restored to original set *****
 -------------------------------------------------------------------
 Center     Atomic                   Forces (Hartrees/Bohr)
 Number     Number              X              Y              Z
 -------------------------------------------------------------------
      1        6          -0.002104891    0.037600888    0.024844382
      2        1           0.001396342   -0.023328267    0.017695830
      3        1           0.006210328    0.001394103    0.012797314
      4        1           0.005754932    0.003566746   -0.025229485
      5        1          -0.011256711   -0.019233469   -0.030108041
 -------------------------------------------------------------------
 Cartesian Forces:  Max     0.037600888 RMS     0.018591370

 GradGradGradGradGradGradGradGradGradGradGradGradGradGradGradGradGradGrad
 Berny optimization.
 Search for a local minimum.
 Step number   1 out of a maximum of    2
 All quantities printed in internal units (Hartrees-Bohrs-Radians)
 Second derivative matrix not updated -- first step.
 The second derivative matrix:
                          X1        Y1        Z1        X2        Y2
           X1           0.52690
           Y1          -0.00351   0.61053
           Z1          -0.02824   0.04277   0.64651
           X2          -0.08387   0.05891  -0.03405   0.06899
           Y2           0.05898  -0.21142   0.09037  -0.06119   0.20431
           Z2          -0.03276   0.08691  -0.13298   0.03819  -0.09643
           X3          -0.09245   0.04167   0.04111  -0.00069   0.00476
           Y3           0.04169  -0.20869  -0.12170   0.00353  -0.01094
           Z3           0.04135  -0.12238  -0.19305  -0.00401   0.01334
           X4          -0.17226  -0.04743   0.11069   0.01829  -0.00001
           Y4          -0.04481  -0.09662   0.04019  -0.02177   0.00030
           Z4           0.11129   0.04310  -0.17707   0.00867   0.00012
           X5          -0.17832  -0.04964  -0.08950  -0.00271  -0.00254
           Y5          -0.05235  -0.09380  -0.05164   0.02052   0.01776
           Z5          -0.09164  -0.05041  -0.14342  -0.00880  -0.00740
                          Z2        X3        Y3        Z3        X4
           Z2           0.12128
           X3           0.00768   0.06955
           Y3          -0.01881  -0.04626   0.19879
           Z3           0.02274  -0.04452   0.13132   0.18159
           X4          -0.01086   0.00133   0.00067  -0.00025   0.16406
           Y4           0.01336   0.02048   0.02074  -0.01493   0.05198
           Z4          -0.00496   0.01021   0.00967  -0.00673  -0.11629
           X5          -0.00227   0.02226   0.00036   0.00742  -0.01142
           Y5           0.01497  -0.02065   0.00011  -0.00735  -0.00522
           Z5          -0.00608  -0.01448  -0.00049  -0.00456   0.01672
                          Y4        Z4        X5        Y5        Z5
           Y4           0.07762
           Z4          -0.04683   0.16863
           X5          -0.00587  -0.01387   0.17019
           Y5          -0.00204  -0.00605   0.05770   0.07797
           Z5           0.00822   0.02013   0.09821   0.05008   0.13392
 ITU=  0
     Eigenvalues ---    0.09742   0.10460   0.12021   0.12740   0.13570
     Eigenvalues ---    0.30434   0.63961   0.70791   0.80842
 Angle between quadratic step and forces=  41.34 degrees.
 Linear search not attempted -- first point.
 B after Tr=     0.000713    0.012136    0.009783
         Rot=    1.000000    0.000012    0.000012   -0.000016 Ang=   0.00 deg.
 Variable       Old X    -DE/DX   Delta X   Delta X   Delta X     New X
                                 (Linear)    (Quad)   (Total)
    X1       -0.29136  -0.00210   0.00000  -0.00269  -0.00347  -0.29483
    Y1       29.06002   0.03760   0.00000   0.04388   0.05660  29.11662
    Z1       24.31548   0.02484   0.00000   0.03127   0.04033  24.35582
    X2       -0.95958   0.00140   0.00000  -0.05452  -0.05532  -1.01491
    Y2       30.78250  -0.02333   0.00000  -0.06188  -0.04921  30.73330
    Z2       23.18770   0.01770   0.00000   0.08642   0.09543  23.28313
    X3        0.19332   0.00621   0.00000   0.06465   0.06395   0.25727
    Y3       27.58622   0.00139   0.00000   0.02229   0.03500  27.62122
    Z3       22.93296   0.01280   0.00000   0.11380   0.12291  23.05587
    X4       -1.72967   0.00575   0.00000  -0.05039  -0.05118  -1.78085
    Y4       28.42998   0.00357   0.00000   0.02225   0.03495  28.46494
    Z4       25.76698  -0.02523   0.00000  -0.13216  -0.12312  25.64387
    X5        1.27815  -0.01126   0.00000   0.04684   0.04601   1.32417
    Y5       29.83103  -0.01923   0.00000  -0.09014  -0.07734  29.75368
    Z5       25.62865  -0.03011   0.00000  -0.14465  -0.13556  25.49309
         Item               Value     Threshold  Converged?
 Maximum Force            0.037601     0.000450     NO 
 RMS     Force            0.018591     0.000300     NO 
 Maximum Displacement     0.135564     0.001800     NO 
 RMS     Displacement     0.075424     0.001200     NO 
 Predicted change in Energy=-7.951829D-03
 GradGradGradGradGradGradGradGradGradGradGradGradGradGradGradGradGradGrad

 1\1\GINC-H11R13\Force\RB3LYP\3-21G*\C1H4\ACKGYDJ0BD\08-Jul-2026\0\\#fo
 rce b3lyp/3-21G* Geom=PrintInputOrient\\Generated by MDDatasetMaker (A
 uthor: Jinzhe Zeng)\\0,1\C,-0.15418,15.3779,12.8672\H,-0.50779,16.2894
 ,12.2704\H,0.1023,14.598,12.1356\H,-0.9153,15.0445,13.6353\H,0.67637,1
 5.7859,13.5621\\Version=EM64L-G16RevB.01\State=1-A\HF=-40.2925201\RMSD
 =5.435e-09\RMSF=1.859e-02\Dipole=-0.006292,0.0128023,0.0104238\Quadrup
 ole=-0.3029403,0.0187671,0.2841732,0.0519324,-0.0283842,0.0999675\PG=C
 01 [X(C1H4)]\\@


 I SUPPOSE A BABY LLAMA HAS A MMAMA AND A PPOPA.
     -- RICHARD AMOUR
 Job cpu time:       0 days  0 hours  2 minutes 35.9 seconds.
 Elapsed time:       0 days  0 hours  0 minutes  3.2 seconds.
 File lengths (MBytes):  RWF=      6 Int=      0 D2E=      0 Chk=      1 Scr=      1
 Normal termination of Gaussian 16 at Wed Jul  8 17:32:14 2026.
