 Entering Gaussian System, Link 0=g16
 Input=data_H1_09.gjf
 Output=data_H1_09.log
 Initial command:
 /work/home/ackgydj0bd/apprepo/gaussian/16b.01-none_v1.3/app/g16/l1.exe "/work/home/ackgydj0bd/apprepo/gaussian/16b.01-none_v1.3/app/g16/scratch/Gau-44138.inp" -scrdir="/work/home/ackgydj0bd/apprepo/gaussian/16b.01-none_v1.3/app/g16/scratch/"
 Entering Link 1 = /work/home/ackgydj0bd/apprepo/gaussian/16b.01-none_v1.3/app/g16/l1.exe PID=     44139.
  
 Copyright (c) 1988-2017, Gaussian, Inc.  All Rights Reserved.
  
 This is part of the Gaussian(R) 16 program.  It is based on
 the Gaussian(R) 09 system (copyright 2009, Gaussian, Inc.),
 the Gaussian(R) 03 system (copyright 2003, Gaussian, Inc.),
 the Gaussian(R) 98 system (copyright 1998, Gaussian, Inc.),
 the Gaussian(R) 94 system (copyright 1995, Gaussian, Inc.),
 the Gaussian 92(TM) system (copyright 1992, Gaussian, Inc.),
 the Gaussian 90(TM) system (copyright 1990, Gaussian, Inc.),
 the Gaussian 88(TM) system (copyright 1988, Gaussian, Inc.),
 the Gaussian 86(TM) system (copyright 1986, Carnegie Mellon
 University), and the Gaussian 82(TM) system (copyright 1983,
 Carnegie Mellon University). Gaussian is a federally registered
 trademark of Gaussian, Inc.
  
 This software contains proprietary and confidential information,
 including trade secrets, belonging to Gaussian, Inc.
  
 This software is provided under written license and may be
 used, copied, transmitted, or stored only in accord with that
 written license.
  
 The following legend is applicable only to US Government
 contracts under FAR:
  
                    RESTRICTED RIGHTS LEGEND
  
 Use, reproduction and disclosure by the US Government is
 subject to restrictions as set forth in subparagraphs (a)
 and (c) of the Commercial Computer Software - Restricted
 Rights clause in FAR 52.227-19.
  
 Gaussian, Inc.
 340 Quinnipiac St., Bldg. 40, Wallingford CT 06492
  
  
 ---------------------------------------------------------------
 Warning -- This program may not be used in any manner that
 competes with the business of Gaussian, Inc. or will provide
 assistance to any competitor of Gaussian, Inc.  The licensee
 of this program is prohibited from giving any competitor of
 Gaussian, Inc. access to this program.  By using this program,
 the user acknowledges that Gaussian, Inc. is engaged in the
 business of creating and licensing software in the field of
 computational chemistry and represents and warrants to the
 licensee that it is not a competitor of Gaussian, Inc. and that
 it will not use this program in any manner prohibited above.
 ---------------------------------------------------------------
  

 Cite this work as:
 Gaussian 16, Revision B.01,
 M. J. Frisch, G. W. Trucks, H. B. Schlegel, G. E. Scuseria, 
 M. A. Robb, J. R. Cheeseman, G. Scalmani, V. Barone, 
 G. A. Petersson, H. Nakatsuji, X. Li, M. Caricato, A. V. Marenich, 
 J. Bloino, B. G. Janesko, R. Gomperts, B. Mennucci, H. P. Hratchian, 
 J. V. Ortiz, A. F. Izmaylov, J. L. Sonnenberg, D. Williams-Young, 
 F. Ding, F. Lipparini, F. Egidi, J. Goings, B. Peng, A. Petrone, 
 T. Henderson, D. Ranasinghe, V. G. Zakrzewski, J. Gao, N. Rega, 
 G. Zheng, W. Liang, M. Hada, M. Ehara, K. Toyota, R. Fukuda, 
 J. Hasegawa, M. Ishida, T. Nakajima, Y. Honda, O. Kitao, H. Nakai, 
 T. Vreven, K. Throssell, J. A. Montgomery, Jr., J. E. Peralta, 
 F. Ogliaro, M. J. Bearpark, J. J. Heyd, E. N. Brothers, K. N. Kudin, 
 V. N. Staroverov, T. A. Keith, R. Kobayashi, J. Normand, 
 K. Raghavachari, A. P. Rendell, J. C. Burant, S. S. Iyengar, 
 J. Tomasi, M. Cossi, J. M. Millam, M. Klene, C. Adamo, R. Cammi, 
 J. W. Ochterski, R. L. Martin, K. Morokuma, O. Farkas, 
 J. B. Foresman, and D. J. Fox, Gaussian, Inc., Wallingford CT, 2016.
 
 ******************************************
 Gaussian 16:  EM64L-G16RevB.01 20-Dec-2017
                 8-Jul-2026 
 ******************************************
 %nproc=64
 Will use up to   64 processors via shared memory.
 %mem=128GB
 -----------------------------------------
 #force b3lyp/3-21G* Geom=PrintInputOrient
 -----------------------------------------
 1/10=7,30=1,38=1/1,3;
 2/9=2000,12=2,17=6,18=5,40=1/2;
 3/5=5,7=1,11=2,25=1,30=1,71=1,74=-5/1,2,3;
 4//1;
 5/5=2,38=5/2;
 6/7=2,8=2,9=2,10=2,28=1/1;
 7/29=1/1,2,3,16;
 1/10=7,30=1/3;
 99//99;
 -------------------------------------------------
 Generated by MDDatasetMaker (Author: Jinzhe Zeng)
 -------------------------------------------------
 Symbolic Z-matrix:
 Charge =  0 Multiplicity = 1
 C                     1.36177   23.3845   0.6862 
 H                     1.84737   24.2271   0.10063 
 H                     1.70795   23.4343   1.73565 
 H                     1.54687   22.4272   0.26976 
 H                     0.19159   23.4869   0.79895 
 

 GradGradGradGradGradGradGradGradGradGradGradGradGradGradGradGradGradGrad
 Berny optimization.
 Initialization pass.
 Trust Radius=3.00D-01 FncErr=1.00D-07 GrdErr=1.00D-07 EigMax=2.50D+02 EigMin=1.00D-04
 Number of steps in this run=      2 maximum allowed number of steps=      2.
 GradGradGradGradGradGradGradGradGradGradGradGradGradGradGradGradGradGrad

                          Input orientation:                          
 ---------------------------------------------------------------------
 Center     Atomic      Atomic             Coordinates (Angstroms)
 Number     Number       Type             X           Y           Z
 ---------------------------------------------------------------------
      1          6           0        1.361770   23.384500    0.686200
      2          1           0        1.847370   24.227100    0.100630
      3          1           0        1.707950   23.434300    1.735650
      4          1           0        1.546870   22.427200    0.269760
      5          1           0        0.191590   23.486900    0.798950
 ---------------------------------------------------------------------
                    Distance matrix (angstroms):
                    1          2          3          4          5
     1  C    0.000000
     2  H    1.135198   0.000000
     3  H    1.106194   1.822432   0.000000
     4  H    1.060239   1.832633   1.785786   0.000000
     5  H    1.180051   1.943490   1.783121   1.799942   0.000000
 Stoichiometry    CH4
 Framework group  C1[X(CH4)]
 Deg. of freedom     9
 Full point group                 C1      NOp   1
 Largest Abelian subgroup         C1      NOp   1
 Largest concise Abelian subgroup C1      NOp   1
                         Standard orientation:                         
 ---------------------------------------------------------------------
 Center     Atomic      Atomic             Coordinates (Angstroms)
 Number     Number       Type             X           Y           Z
 ---------------------------------------------------------------------
      1          6           0       -0.017195    0.014359    0.001950
      2          1           0       -1.023833   -0.172903   -0.488242
      3          1           0        0.131688   -0.730692    0.805939
      4          1           0        0.087659    1.001555    0.374184
      5          1           0        0.907659   -0.184116   -0.703580
 ---------------------------------------------------------------------
 Rotational constants (GHZ):         160.4240376         146.4970566         143.1585232
 Standard basis: 3-21G* (6D, 7F)
 There are    17 symmetry adapted cartesian basis functions of A   symmetry.
 There are    17 symmetry adapted basis functions of A   symmetry.
    17 basis functions,    27 primitive gaussians,    17 cartesian basis functions
     5 alpha electrons        5 beta electrons
       nuclear repulsion energy        13.0909626503 Hartrees.
 NAtoms=    5 NActive=    5 NUniq=    5 SFac= 1.00D+00 NAtFMM=   60 NAOKFM=F Big=F
 Integral buffers will be    131072 words long.
 Raffenetti 2 integral format.
 Two-electron integral symmetry is turned on.
 One-electron integrals computed using PRISM.
 NBasis=    17 RedAO= T EigKep=  3.66D-02  NBF=    17
 NBsUse=    17 1.00D-06 EigRej= -1.00D+00 NBFU=    17
 ExpMin= 1.83D-01 ExpMax= 1.72D+02 ExpMxC= 1.72D+02 IAcc=3 IRadAn=         5 AccDes= 0.00D+00
 Harris functional with IExCor=  402 and IRadAn=       5 diagonalized for initial guess.
 HarFok:  IExCor=  402 AccDes= 0.00D+00 IRadAn=         5 IDoV= 1 UseB2=F ITyADJ=14
 ICtDFT=  3500011 ScaDFX=  1.000000  1.000000  1.000000  1.000000
 FoFCou: FMM=F IPFlag=           0 FMFlag=      100000 FMFlg1=           0
         NFxFlg=           0 DoJE=T BraDBF=F KetDBF=T FulRan=T
         wScrn=  0.000000 ICntrl=       500 IOpCl=  0 I1Cent=   200000004 NGrid=           0
         NMat0=    1 NMatS0=      1 NMatT0=    0 NMatD0=    1 NMtDS0=    0 NMtDT0=    0
 Petite list used in FoFCou.
 Keep R1 ints in memory in canonical form, NReq=55236554.
 Requested convergence on RMS density matrix=1.00D-08 within 128 cycles.
 Requested convergence on MAX density matrix=1.00D-06.
 Requested convergence on             energy=1.00D-06.
 No special actions if energy rises.
 Integral accuracy reduced to 1.0D-05 until final iterations.
 Initial convergence to 1.0D-05 achieved.  Increase integral accuracy.
 SCF Done:  E(RB3LYP) =  -40.2940472672     A.U. after    9 cycles
            NFock=  9  Conv=0.30D-08     -V/T= 2.0136

 **********************************************************************

            Population analysis using the SCF Density.

 **********************************************************************

 Orbital symmetries:
       Occupied  (A) (A) (A) (A) (A)
       Virtual   (A) (A) (A) (A) (A) (A) (A) (A) (A) (A) (A) (A)
 The electronic state is 1-A.
 Alpha  occ. eigenvalues --  -10.11091  -0.68345  -0.39901  -0.38831  -0.36534
 Alpha virt. eigenvalues --    0.13248   0.17003   0.18350   0.20272   0.70053
 Alpha virt. eigenvalues --    0.71467   0.75054   0.97837   1.01259   1.03993
 Alpha virt. eigenvalues --    1.07524   1.68467
          Condensed to atoms (all electrons):
               1          2          3          4          5
     1  C    5.287418   0.367595   0.360668   0.368233   0.357251
     2  H    0.367595   0.517120  -0.026078  -0.023722  -0.016975
     3  H    0.360668  -0.026078   0.532241  -0.026050  -0.030774
     4  H    0.368233  -0.023722  -0.026050   0.505224  -0.027901
     5  H    0.357251  -0.016975  -0.030774  -0.027901   0.553500
 Mulliken charges:
               1
     1  C   -0.741165
     2  H    0.182060
     3  H    0.189992
     4  H    0.204215
     5  H    0.164899
 Sum of Mulliken charges =   0.00000
 Mulliken charges with hydrogens summed into heavy atoms:
               1
     1  C    0.000000
 Electronic spatial extent (au):  <R**2>=             36.4969
 Charge=              0.0000 electrons
 Dipole moment (field-independent basis, Debye):
    X=              0.0320    Y=             -0.0012    Z=              0.0827  Tot=              0.0887
 Quadrupole moment (field-independent basis, Debye-Ang):
   XX=             -8.1007   YY=             -8.2794   ZZ=             -8.5786
   XY=              0.0291   XZ=              0.0915   YZ=              0.0246
 Traceless Quadrupole moment (field-independent basis, Debye-Ang):
   XX=              0.2189   YY=              0.0402   ZZ=             -0.2590
   XY=              0.0291   XZ=              0.0915   YZ=              0.0246
 Octapole moment (field-independent basis, Debye-Ang**2):
  XXX=             -0.3265  YYY=              0.6048  ZZZ=              0.3753  XYY=              0.1371
  XXY=             -0.2406  XXZ=             -0.7187  XZZ=              0.1803  YZZ=             -0.2671
  YYZ=              0.6568  XYZ=             -0.0213
 Hexadecapole moment (field-independent basis, Debye-Ang**3):
 XXXX=            -15.7689 YYYY=            -14.4506 ZZZZ=            -15.5736 XXXY=              0.1132
 XXXZ=              0.1844 YYYX=              0.0981 YYYZ=              0.1119 ZZZX=              0.0511
 ZZZY=             -0.2137 XXYY=             -5.5093 XXZZ=             -4.9622 YYZZ=             -4.8181
 XXYZ=              0.2252 YYXZ=              0.1530 ZZXY=             -0.0785
 N-N= 1.309096265025D+01 E-N=-1.186404224766D+02  KE= 3.975321623610D+01
 Calling FoFJK, ICntrl=      2127 FMM=F ISym2X=0 I1Cent= 0 IOpClX= 0 NMat=1 NMatS=1 NMatT=0.
 ***** Axes restored to original set *****
 -------------------------------------------------------------------
 Center     Atomic                   Forces (Hartrees/Bohr)
 Number     Number              X              Y              Z
 -------------------------------------------------------------------
      1        6          -0.038277115    0.037412149    0.021159249
      2        1          -0.016636017   -0.019784357    0.010500070
      3        1           0.004648941   -0.002650673   -0.008362108
      4        1           0.008813673   -0.018431295   -0.010213523
      5        1           0.041450519    0.003454176   -0.013083687
 -------------------------------------------------------------------
 Cartesian Forces:  Max     0.041450519 RMS     0.020996003

 GradGradGradGradGradGradGradGradGradGradGradGradGradGradGradGradGradGrad
 Berny optimization.
 Search for a local minimum.
 Step number   1 out of a maximum of    2
 All quantities printed in internal units (Hartrees-Bohrs-Radians)
 Second derivative matrix not updated -- first step.
 The second derivative matrix:
                          X1        Y1        Z1        X2        Y2
           X1           0.55095
           Y1           0.01718   0.68268
           Z1          -0.02470   0.02716   0.62825
           X2          -0.11357  -0.07204   0.05459   0.09619
           Y2          -0.07098  -0.20127   0.08470   0.07837   0.19074
           Z2           0.05306   0.08335  -0.13356  -0.05684  -0.09326
           X3          -0.09242  -0.00693  -0.07640   0.00995   0.00573
           Y3          -0.00587  -0.07773  -0.00629   0.01342   0.00872
           Z3          -0.07811  -0.00969  -0.30456  -0.00392  -0.00231
           X4          -0.08658   0.04510   0.02718   0.00813  -0.01350
           Y4           0.04612  -0.33218  -0.10653   0.00581  -0.01050
           Z4           0.02658  -0.10117  -0.12794  -0.00975   0.01814
           X5          -0.25839   0.01669   0.01932  -0.00070   0.00038
           Y5           0.01356  -0.07149   0.00096  -0.02556   0.01232
           Z5           0.02317   0.00035  -0.06219   0.01591  -0.00728
                          Z2        X3        Y3        Z3        X4
           Z2           0.11939
           X3           0.01650   0.08051
           Y3           0.02367   0.00676   0.05772
           Z3          -0.00657   0.08200   0.01070   0.30251
           X4          -0.01268   0.00526  -0.01467  -0.00104   0.06905
           Y4          -0.01029  -0.00342   0.01086   0.00061  -0.04926
           Z4           0.01802   0.01019  -0.03148  -0.00187  -0.02715
           X5          -0.00004  -0.00330   0.00037   0.00107   0.00415
           Y5          -0.00348  -0.00215   0.00044   0.00069   0.03233
           Z5           0.00272  -0.03230   0.00340   0.01049   0.01369
                          Y4        Z4        X5        Y5        Z5
           Y4           0.32583
           Z4           0.11392   0.11097
           X5           0.00075   0.00013   0.25824
           Y5           0.00600   0.00059  -0.01818   0.05274
           Z5           0.00229   0.00081  -0.02048   0.00124   0.04816
 ITU=  0
     Eigenvalues ---    0.10180   0.10652   0.12327   0.12978   0.13800
     Eigenvalues ---    0.31250   0.65839   0.75205   0.86004
 Angle between quadratic step and forces=  45.12 degrees.
 Linear search not attempted -- first point.
 B after Tr=    -0.008737    0.002302    0.011308
         Rot=    1.000000    0.000004    0.000021   -0.000002 Ang=   0.00 deg.
 Variable       Old X    -DE/DX   Delta X   Delta X   Delta X     New X
                                 (Linear)    (Quad)   (Total)
    X1        2.57337  -0.03828   0.00000  -0.03088  -0.03983   2.53354
    Y1       44.19030   0.03741   0.00000   0.00801   0.01033  44.20063
    Z1        1.29673   0.02116   0.00000   0.03816   0.04922   1.34595
    X2        3.49102  -0.01664   0.00000  -0.12574  -0.13465   3.35637
    Y2       45.78258  -0.01978   0.00000  -0.06124  -0.05892  45.72366
    Z2        0.19016   0.01050   0.00000   0.03531   0.04640   0.23656
    X3        3.22756   0.00465   0.00000   0.04839   0.03936   3.26692
    Y3       44.28441  -0.00265   0.00000  -0.01076  -0.00842  44.27599
    Z3        3.27990  -0.00836   0.00000  -0.00817   0.00293   3.28283
    X4        2.92316   0.00881   0.00000   0.02962   0.02071   2.94387
    Y4       42.38127  -0.01843   0.00000  -0.01809  -0.01577  42.36550
    Z4        0.50977  -0.01021   0.00000  -0.02175  -0.01066   0.49912
    X5        0.36205   0.04145   0.00000   0.12337   0.11441   0.47647
    Y5       44.38381   0.00345   0.00000   0.07046   0.07278  44.45658
    Z5        1.50980  -0.01308   0.00000  -0.09887  -0.08790   1.42190
         Item               Value     Threshold  Converged?
 Maximum Force            0.041451     0.000450     NO 
 RMS     Force            0.020996     0.000300     NO 
 Maximum Displacement     0.134653     0.001800     NO 
 RMS     Displacement     0.061321     0.001200     NO 
 Predicted change in Energy=-6.876106D-03
 GradGradGradGradGradGradGradGradGradGradGradGradGradGradGradGradGradGrad

 1\1\GINC-H11R13\Force\RB3LYP\3-21G*\C1H4\ACKGYDJ0BD\08-Jul-2026\0\\#fo
 rce b3lyp/3-21G* Geom=PrintInputOrient\\Generated by MDDatasetMaker (A
 uthor: Jinzhe Zeng)\\0,1\C,1.36177,23.3845,0.6862\H,1.84737,24.2271,0.
 10063\H,1.70795,23.4343,1.73565\H,1.54687,22.4272,0.26976\H,0.19159,23
 .4869,0.79895\\Version=EM64L-G16RevB.01\State=1-A\HF=-40.2940473\RMSD=
 2.993e-09\RMSF=2.100e-02\Dipole=0.0100239,-0.0223845,0.0248107\Quadrup
 ole=-0.0375481,0.0545534,-0.0170053,0.1316607,-0.1337611,0.0096979\PG=
 C01 [X(C1H4)]\\@


 THE ONLY TROUBLE WITH A SURE THING IS THE UNCERTAINTY.
     -- FROM A TEABAG (BELONGING TO W.H.?)
 Job cpu time:       0 days  0 hours  2 minutes 39.2 seconds.
 Elapsed time:       0 days  0 hours  0 minutes  3.3 seconds.
 File lengths (MBytes):  RWF=      6 Int=      0 D2E=      0 Chk=      1 Scr=      1
 Normal termination of Gaussian 16 at Wed Jul  8 17:32:32 2026.
