 Entering Gaussian System, Link 0=g16
 Input=data_C1111_01.gjf
 Output=data_C1111_01.log
 Initial command:
 /work/home/ackgydj0bd/apprepo/gaussian/16b.01-none_v1.3/app/g16/l1.exe "/work/home/ackgydj0bd/apprepo/gaussian/16b.01-none_v1.3/app/g16/scratch/Gau-24927.inp" -scrdir="/work/home/ackgydj0bd/apprepo/gaussian/16b.01-none_v1.3/app/g16/scratch/"
 Entering Link 1 = /work/home/ackgydj0bd/apprepo/gaussian/16b.01-none_v1.3/app/g16/l1.exe PID=     24928.
  
 Copyright (c) 1988-2017, Gaussian, Inc.  All Rights Reserved.
  
 This is part of the Gaussian(R) 16 program.  It is based on
 the Gaussian(R) 09 system (copyright 2009, Gaussian, Inc.),
 the Gaussian(R) 03 system (copyright 2003, Gaussian, Inc.),
 the Gaussian(R) 98 system (copyright 1998, Gaussian, Inc.),
 the Gaussian(R) 94 system (copyright 1995, Gaussian, Inc.),
 the Gaussian 92(TM) system (copyright 1992, Gaussian, Inc.),
 the Gaussian 90(TM) system (copyright 1990, Gaussian, Inc.),
 the Gaussian 88(TM) system (copyright 1988, Gaussian, Inc.),
 the Gaussian 86(TM) system (copyright 1986, Carnegie Mellon
 University), and the Gaussian 82(TM) system (copyright 1983,
 Carnegie Mellon University). Gaussian is a federally registered
 trademark of Gaussian, Inc.
  
 This software contains proprietary and confidential information,
 including trade secrets, belonging to Gaussian, Inc.
  
 This software is provided under written license and may be
 used, copied, transmitted, or stored only in accord with that
 written license.
  
 The following legend is applicable only to US Government
 contracts under FAR:
  
                    RESTRICTED RIGHTS LEGEND
  
 Use, reproduction and disclosure by the US Government is
 subject to restrictions as set forth in subparagraphs (a)
 and (c) of the Commercial Computer Software - Restricted
 Rights clause in FAR 52.227-19.
  
 Gaussian, Inc.
 340 Quinnipiac St., Bldg. 40, Wallingford CT 06492
  
  
 ---------------------------------------------------------------
 Warning -- This program may not be used in any manner that
 competes with the business of Gaussian, Inc. or will provide
 assistance to any competitor of Gaussian, Inc.  The licensee
 of this program is prohibited from giving any competitor of
 Gaussian, Inc. access to this program.  By using this program,
 the user acknowledges that Gaussian, Inc. is engaged in the
 business of creating and licensing software in the field of
 computational chemistry and represents and warrants to the
 licensee that it is not a competitor of Gaussian, Inc. and that
 it will not use this program in any manner prohibited above.
 ---------------------------------------------------------------
  

 Cite this work as:
 Gaussian 16, Revision B.01,
 M. J. Frisch, G. W. Trucks, H. B. Schlegel, G. E. Scuseria, 
 M. A. Robb, J. R. Cheeseman, G. Scalmani, V. Barone, 
 G. A. Petersson, H. Nakatsuji, X. Li, M. Caricato, A. V. Marenich, 
 J. Bloino, B. G. Janesko, R. Gomperts, B. Mennucci, H. P. Hratchian, 
 J. V. Ortiz, A. F. Izmaylov, J. L. Sonnenberg, D. Williams-Young, 
 F. Ding, F. Lipparini, F. Egidi, J. Goings, B. Peng, A. Petrone, 
 T. Henderson, D. Ranasinghe, V. G. Zakrzewski, J. Gao, N. Rega, 
 G. Zheng, W. Liang, M. Hada, M. Ehara, K. Toyota, R. Fukuda, 
 J. Hasegawa, M. Ishida, T. Nakajima, Y. Honda, O. Kitao, H. Nakai, 
 T. Vreven, K. Throssell, J. A. Montgomery, Jr., J. E. Peralta, 
 F. Ogliaro, M. J. Bearpark, J. J. Heyd, E. N. Brothers, K. N. Kudin, 
 V. N. Staroverov, T. A. Keith, R. Kobayashi, J. Normand, 
 K. Raghavachari, A. P. Rendell, J. C. Burant, S. S. Iyengar, 
 J. Tomasi, M. Cossi, J. M. Millam, M. Klene, C. Adamo, R. Cammi, 
 J. W. Ochterski, R. L. Martin, K. Morokuma, O. Farkas, 
 J. B. Foresman, and D. J. Fox, Gaussian, Inc., Wallingford CT, 2016.
 
 ******************************************
 Gaussian 16:  EM64L-G16RevB.01 20-Dec-2017
                 8-Jul-2026 
 ******************************************
 %nproc=64
 Will use up to   64 processors via shared memory.
 %mem=128GB
 -----------------------------------------
 #force b3lyp/3-21G* Geom=PrintInputOrient
 -----------------------------------------
 1/10=7,30=1,38=1/1,3;
 2/9=2000,12=2,17=6,18=5,40=1/2;
 3/5=5,7=1,11=2,25=1,30=1,71=1,74=-5/1,2,3;
 4//1;
 5/5=2,38=5/2;
 6/7=2,8=2,9=2,10=2,28=1/1;
 7/29=1/1,2,3,16;
 1/10=7,30=1/3;
 99//99;
 -------------------------------------------------
 Generated by MDDatasetMaker (Author: Jinzhe Zeng)
 -------------------------------------------------
 Symbolic Z-matrix:
 Charge =  0 Multiplicity = 1
 C                     23.8086   15.5957   23.9334 
 H                     22.7471   15.6171   24.0907 
 H                     24.0301   14.56     24.2071 
 H                     24.3019   16.3659   24.5327 
 H                     24.0772   15.8529   22.8954 
 

 GradGradGradGradGradGradGradGradGradGradGradGradGradGradGradGradGradGrad
 Berny optimization.
 Initialization pass.
 Trust Radius=3.00D-01 FncErr=1.00D-07 GrdErr=1.00D-07 EigMax=2.50D+02 EigMin=1.00D-04
 Number of steps in this run=      2 maximum allowed number of steps=      2.
 GradGradGradGradGradGradGradGradGradGradGradGradGradGradGradGradGradGrad

                          Input orientation:                          
 ---------------------------------------------------------------------
 Center     Atomic      Atomic             Coordinates (Angstroms)
 Number     Number       Type             X           Y           Z
 ---------------------------------------------------------------------
      1          6           0       23.808600   15.595700   23.933400
      2          1           0       22.747100   15.617100   24.090700
      3          1           0       24.030100   14.560000   24.207100
      4          1           0       24.301900   16.365900   24.532700
      5          1           0       24.077200   15.852900   22.895400
 ---------------------------------------------------------------------
                    Distance matrix (angstroms):
                    1          2          3          4          5
     1  C    0.000000
     2  H    1.073305   0.000000
     3  H    1.093914   1.666463   0.000000
     4  H    1.093487   1.781423   1.855038   0.000000
     5  H    1.102607   1.803749   1.842380   1.730436   0.000000
 Stoichiometry    CH4
 Framework group  C1[X(CH4)]
 Deg. of freedom     9
 Full point group                 C1      NOp   1
 Largest Abelian subgroup         C1      NOp   1
 Largest concise Abelian subgroup C1      NOp   1
                         Standard orientation:                         
 ---------------------------------------------------------------------
 Center     Atomic      Atomic             Coordinates (Angstroms)
 Number     Number       Type             X           Y           Z
 ---------------------------------------------------------------------
      1          6           0        0.002451    0.000425   -0.007558
      2          1           0       -0.543173   -0.231741    0.887080
      3          1           0       -0.822243    0.190829   -0.700576
      4          1           0        0.672313   -0.821801   -0.273907
      5          1           0        0.678399    0.860163    0.132749
 ---------------------------------------------------------------------
 Rotational constants (GHZ):         174.3415612         154.0886042         147.9755939
 Standard basis: 3-21G* (6D, 7F)
 There are    17 symmetry adapted cartesian basis functions of A   symmetry.
 There are    17 symmetry adapted basis functions of A   symmetry.
    17 basis functions,    27 primitive gaussians,    17 cartesian basis functions
     5 alpha electrons        5 beta electrons
       nuclear repulsion energy        13.4301712537 Hartrees.
 NAtoms=    5 NActive=    5 NUniq=    5 SFac= 1.00D+00 NAtFMM=   60 NAOKFM=F Big=F
 Integral buffers will be    131072 words long.
 Raffenetti 2 integral format.
 Two-electron integral symmetry is turned on.
 One-electron integrals computed using PRISM.
 NBasis=    17 RedAO= T EigKep=  3.42D-02  NBF=    17
 NBsUse=    17 1.00D-06 EigRej= -1.00D+00 NBFU=    17
 ExpMin= 1.83D-01 ExpMax= 1.72D+02 ExpMxC= 1.72D+02 IAcc=3 IRadAn=         5 AccDes= 0.00D+00
 Harris functional with IExCor=  402 and IRadAn=       5 diagonalized for initial guess.
 HarFok:  IExCor=  402 AccDes= 0.00D+00 IRadAn=         5 IDoV= 1 UseB2=F ITyADJ=14
 ICtDFT=  3500011 ScaDFX=  1.000000  1.000000  1.000000  1.000000
 FoFCou: FMM=F IPFlag=           0 FMFlag=      100000 FMFlg1=           0
         NFxFlg=           0 DoJE=T BraDBF=F KetDBF=T FulRan=T
         wScrn=  0.000000 ICntrl=       500 IOpCl=  0 I1Cent=   200000004 NGrid=           0
         NMat0=    1 NMatS0=      1 NMatT0=    0 NMatD0=    1 NMtDS0=    0 NMtDT0=    0
 Petite list used in FoFCou.
 Keep R1 ints in memory in canonical form, NReq=55236554.
 Requested convergence on RMS density matrix=1.00D-08 within 128 cycles.
 Requested convergence on MAX density matrix=1.00D-06.
 Requested convergence on             energy=1.00D-06.
 No special actions if energy rises.
 Integral accuracy reduced to 1.0D-05 until final iterations.
 Initial convergence to 1.0D-05 achieved.  Increase integral accuracy.
 SCF Done:  E(RB3LYP) =  -40.2971967969     A.U. after    9 cycles
            NFock=  9  Conv=0.43D-08     -V/T= 2.0103

 **********************************************************************

            Population analysis using the SCF Density.

 **********************************************************************

 Orbital symmetries:
       Occupied  (A) (A) (A) (A) (A)
       Virtual   (A) (A) (A) (A) (A) (A) (A) (A) (A) (A) (A) (A)
 The electronic state is 1-A.
 Alpha  occ. eigenvalues --  -10.09902  -0.69149  -0.41320  -0.37996  -0.37361
 Alpha virt. eigenvalues --    0.14496   0.18514   0.19054   0.20657   0.69024
 Alpha virt. eigenvalues --    0.70360   0.73709   1.02096   1.04275   1.05288
 Alpha virt. eigenvalues --    1.08160   1.68667
          Condensed to atoms (all electrons):
               1          2          3          4          5
     1  C    5.296348   0.364725   0.368799   0.369152   0.368360
     2  H    0.364725   0.525850  -0.039764  -0.024992  -0.022705
     3  H    0.368799  -0.039764   0.518988  -0.018516  -0.020334
     4  H    0.369152  -0.024992  -0.018516   0.516464  -0.033437
     5  H    0.368360  -0.022705  -0.020334  -0.033437   0.519772
 Mulliken charges:
               1
     1  C   -0.767385
     2  H    0.196884
     3  H    0.190827
     4  H    0.191329
     5  H    0.188345
 Sum of Mulliken charges =   0.00000
 Mulliken charges with hydrogens summed into heavy atoms:
               1
     1  C    0.000000
 Electronic spatial extent (au):  <R**2>=             35.3982
 Charge=              0.0000 electrons
 Dipole moment (field-independent basis, Debye):
    X=             -0.0307    Y=             -0.0164    Z=              0.0548  Tot=              0.0649
 Quadrupole moment (field-independent basis, Debye-Ang):
   XX=             -7.7956   YY=             -8.3893   ZZ=             -8.5662
   XY=             -0.0069   XZ=             -0.0193   YZ=             -0.0046
 Traceless Quadrupole moment (field-independent basis, Debye-Ang):
   XX=              0.4548   YY=             -0.1389   ZZ=             -0.3158
   XY=             -0.0069   XZ=             -0.0193   YZ=             -0.0046
 Octapole moment (field-independent basis, Debye-Ang**2):
  XXX=             -0.1695  YYY=             -0.0041  ZZZ=              0.3249  XYY=              0.6515
  XXY=              0.0489  XXZ=             -0.1733  XZZ=             -0.5538  YZZ=             -0.0996
  YYZ=             -0.0004  XYZ=              0.3256
 Hexadecapole moment (field-independent basis, Debye-Ang**3):
 XXXX=            -15.5863 YYYY=            -14.6716 ZZZZ=            -14.3563 XXXY=             -0.0715
 XXXZ=              0.1881 YYYX=              0.0489 YYYZ=              0.2173 ZZZX=             -0.1582
 ZZZY=             -0.2267 XXYY=             -4.6520 XXZZ=             -4.6765 YYZZ=             -5.0342
 XXYZ=              0.0004 YYXZ=             -0.0773 ZZXY=             -0.0121
 N-N= 1.343017125375D+01 E-N=-1.194175230676D+02  KE= 3.988782360469D+01
 Calling FoFJK, ICntrl=      2127 FMM=F ISym2X=0 I1Cent= 0 IOpClX= 0 NMat=1 NMatS=1 NMatT=0.
 ***** Axes restored to original set *****
 -------------------------------------------------------------------
 Center     Atomic                   Forces (Hartrees/Bohr)
 Number     Number              X              Y              Z
 -------------------------------------------------------------------
      1        6           0.004807100    0.001980320   -0.006548678
      2        1          -0.016724795    0.013547130   -0.003361542
      3        1           0.017963154    0.003664706   -0.001843799
      4        1          -0.000076194   -0.008156922    0.009433607
      5        1          -0.005969266   -0.011035233    0.002320412
 -------------------------------------------------------------------
 Cartesian Forces:  Max     0.017963154 RMS     0.008952802

 GradGradGradGradGradGradGradGradGradGradGradGradGradGradGradGradGradGrad
 Berny optimization.
 Search for a local minimum.
 Step number   1 out of a maximum of    2
 All quantities printed in internal units (Hartrees-Bohrs-Radians)
 Second derivative matrix not updated -- first step.
 The second derivative matrix:
                          X1        Y1        Z1        X2        Y2
           X1           0.65919
           Y1           0.04449   0.69875
           Z1          -0.01896  -0.01545   0.64578
           X2          -0.36178   0.00572   0.04228   0.36133
           Y2           0.00601  -0.07704  -0.00107  -0.00621   0.06137
           Z2           0.04219  -0.00103  -0.08268  -0.04523  -0.00014
           X3          -0.08311   0.04811  -0.01430  -0.00082   0.03556
           Y3           0.05166  -0.31684   0.06191  -0.00012   0.00574
           Z3          -0.01536   0.06247  -0.09779   0.00023  -0.00707
           X4          -0.12716  -0.08335  -0.06540  -0.00375  -0.02584
           Y4          -0.08622  -0.21157  -0.10150   0.00118   0.00848
           Z4          -0.06778  -0.10175  -0.15986   0.00156   0.01038
           X5          -0.08714  -0.01496   0.05638   0.00502  -0.00952
           Y5          -0.01594  -0.09330   0.05611  -0.00058   0.00146
           Z5           0.05992   0.05576  -0.30546   0.00116  -0.00210
                          Z2        X3        Y3        Z3        X4
           Z2           0.06295
           X3          -0.01038   0.06821
           Y3          -0.00156  -0.05510   0.31392
           Z3           0.00251   0.01441  -0.06790   0.07505
           X4          -0.02176   0.01063   0.00545   0.01200   0.11255
           Y4           0.00683  -0.01617  -0.00862  -0.01952   0.09340
           Z4           0.00913   0.01203   0.00659   0.01521   0.07059
           X5           0.03519   0.00508  -0.00189  -0.01128   0.00773
           Y5          -0.00411  -0.01240   0.00581   0.03201   0.01035
           Z5           0.00809  -0.00176   0.00095   0.00501   0.00457
                          Y4        Z4        X5        Y5        Z5
           Y4           0.19940
           Z4           0.10912   0.14578
           X5           0.00782  -0.01641   0.06931
           Y5           0.01231  -0.02434   0.01857   0.07371
           Z5           0.00507  -0.01028  -0.06388  -0.05968   0.30264
 ITU=  0
     Eigenvalues ---    0.10790   0.11784   0.12555   0.13943   0.14430
     Eigenvalues ---    0.34598   0.77619   0.79373   0.87796
 Angle between quadratic step and forces=  23.22 degrees.
 Linear search not attempted -- first point.
 B after Tr=    -0.005911    0.000805   -0.000357
         Rot=    1.000000    0.000000    0.000004    0.000003 Ang=   0.00 deg.
 Variable       Old X    -DE/DX   Delta X   Delta X   Delta X     New X
                                 (Linear)    (Quad)   (Total)
    X1       44.99173   0.00481   0.00000  -0.02098  -0.02706  44.96467
    Y1       29.47160   0.00198   0.00000   0.00210   0.00270  29.47431
    Z1       45.22757  -0.00655   0.00000  -0.00020  -0.00026  45.22731
    X2       42.98579  -0.01672   0.00000  -0.07014  -0.07623  42.90956
    Y2       29.51204   0.01355   0.00000   0.11573   0.11635  29.62839
    Z2       45.52483  -0.00336   0.00000  -0.04499  -0.04506  45.47976
    X3       45.41031   0.01796   0.00000   0.15857   0.15247  45.56278
    Y3       27.51441   0.00366   0.00000   0.03633   0.03694  27.55135
    Z3       45.74479  -0.00184   0.00000  -0.01937  -0.01943  45.72536
    X4       45.92394  -0.00008   0.00000   0.00382  -0.00227  45.92167
    Y4       30.92707  -0.00816   0.00000  -0.07245  -0.07184  30.85522
    Z4       46.36008   0.00943   0.00000   0.07196   0.07191  46.43199
    X5       45.49931  -0.00597   0.00000  -0.04085  -0.04691  45.45240
    Y5       29.95764  -0.01104   0.00000  -0.08475  -0.08414  29.87350
    Z5       43.26604   0.00232   0.00000  -0.00710  -0.00716  43.25888
         Item               Value     Threshold  Converged?
 Maximum Force            0.017963     0.000450     NO 
 RMS     Force            0.008953     0.000300     NO 
 Maximum Displacement     0.152473     0.001800     NO 
 RMS     Displacement     0.066722     0.001200     NO 
 Predicted change in Energy=-4.123045D-03
 GradGradGradGradGradGradGradGradGradGradGradGradGradGradGradGradGradGrad

 1\1\GINC-H11R13\Force\RB3LYP\3-21G*\C1H4\ACKGYDJ0BD\08-Jul-2026\0\\#fo
 rce b3lyp/3-21G* Geom=PrintInputOrient\\Generated by MDDatasetMaker (A
 uthor: Jinzhe Zeng)\\0,1\C,23.8086,15.5957,23.9334\H,22.7471,15.6171,2
 4.0907\H,24.0301,14.56,24.2071\H,24.3019,16.3659,24.5327\H,24.0772,15.
 8529,22.8954\\Version=EM64L-G16RevB.01\State=1-A\HF=-40.2971968\RMSD=4
 .280e-09\RMSF=8.953e-03\Dipole=-0.0251374,0.0017545,0.0042056\Quadrupo
 le=-0.0886692,0.1612236,-0.0725543,0.2274291,-0.1013238,-0.0935639\PG=
 C01 [X(C1H4)]\\@


 WOMEN HOLD UP HALF THE SKY. -- MAO TSE TUNG
 Job cpu time:       0 days  0 hours  2 minutes 58.0 seconds.
 Elapsed time:       0 days  0 hours  0 minutes  3.6 seconds.
 File lengths (MBytes):  RWF=      6 Int=      0 D2E=      0 Chk=      1 Scr=      1
 Normal termination of Gaussian 16 at Wed Jul  8 17:31:28 2026.
