 Entering Gaussian System, Link 0=g16
 Input=data_C1111_07.gjf
 Output=data_C1111_07.log
 Initial command:
 /work/home/ackgydj0bd/apprepo/gaussian/16b.01-none_v1.3/app/g16/l1.exe "/work/home/ackgydj0bd/apprepo/gaussian/16b.01-none_v1.3/app/g16/scratch/Gau-31052.inp" -scrdir="/work/home/ackgydj0bd/apprepo/gaussian/16b.01-none_v1.3/app/g16/scratch/"
 Entering Link 1 = /work/home/ackgydj0bd/apprepo/gaussian/16b.01-none_v1.3/app/g16/l1.exe PID=     31053.
  
 Copyright (c) 1988-2017, Gaussian, Inc.  All Rights Reserved.
  
 This is part of the Gaussian(R) 16 program.  It is based on
 the Gaussian(R) 09 system (copyright 2009, Gaussian, Inc.),
 the Gaussian(R) 03 system (copyright 2003, Gaussian, Inc.),
 the Gaussian(R) 98 system (copyright 1998, Gaussian, Inc.),
 the Gaussian(R) 94 system (copyright 1995, Gaussian, Inc.),
 the Gaussian 92(TM) system (copyright 1992, Gaussian, Inc.),
 the Gaussian 90(TM) system (copyright 1990, Gaussian, Inc.),
 the Gaussian 88(TM) system (copyright 1988, Gaussian, Inc.),
 the Gaussian 86(TM) system (copyright 1986, Carnegie Mellon
 University), and the Gaussian 82(TM) system (copyright 1983,
 Carnegie Mellon University). Gaussian is a federally registered
 trademark of Gaussian, Inc.
  
 This software contains proprietary and confidential information,
 including trade secrets, belonging to Gaussian, Inc.
  
 This software is provided under written license and may be
 used, copied, transmitted, or stored only in accord with that
 written license.
  
 The following legend is applicable only to US Government
 contracts under FAR:
  
                    RESTRICTED RIGHTS LEGEND
  
 Use, reproduction and disclosure by the US Government is
 subject to restrictions as set forth in subparagraphs (a)
 and (c) of the Commercial Computer Software - Restricted
 Rights clause in FAR 52.227-19.
  
 Gaussian, Inc.
 340 Quinnipiac St., Bldg. 40, Wallingford CT 06492
  
  
 ---------------------------------------------------------------
 Warning -- This program may not be used in any manner that
 competes with the business of Gaussian, Inc. or will provide
 assistance to any competitor of Gaussian, Inc.  The licensee
 of this program is prohibited from giving any competitor of
 Gaussian, Inc. access to this program.  By using this program,
 the user acknowledges that Gaussian, Inc. is engaged in the
 business of creating and licensing software in the field of
 computational chemistry and represents and warrants to the
 licensee that it is not a competitor of Gaussian, Inc. and that
 it will not use this program in any manner prohibited above.
 ---------------------------------------------------------------
  

 Cite this work as:
 Gaussian 16, Revision B.01,
 M. J. Frisch, G. W. Trucks, H. B. Schlegel, G. E. Scuseria, 
 M. A. Robb, J. R. Cheeseman, G. Scalmani, V. Barone, 
 G. A. Petersson, H. Nakatsuji, X. Li, M. Caricato, A. V. Marenich, 
 J. Bloino, B. G. Janesko, R. Gomperts, B. Mennucci, H. P. Hratchian, 
 J. V. Ortiz, A. F. Izmaylov, J. L. Sonnenberg, D. Williams-Young, 
 F. Ding, F. Lipparini, F. Egidi, J. Goings, B. Peng, A. Petrone, 
 T. Henderson, D. Ranasinghe, V. G. Zakrzewski, J. Gao, N. Rega, 
 G. Zheng, W. Liang, M. Hada, M. Ehara, K. Toyota, R. Fukuda, 
 J. Hasegawa, M. Ishida, T. Nakajima, Y. Honda, O. Kitao, H. Nakai, 
 T. Vreven, K. Throssell, J. A. Montgomery, Jr., J. E. Peralta, 
 F. Ogliaro, M. J. Bearpark, J. J. Heyd, E. N. Brothers, K. N. Kudin, 
 V. N. Staroverov, T. A. Keith, R. Kobayashi, J. Normand, 
 K. Raghavachari, A. P. Rendell, J. C. Burant, S. S. Iyengar, 
 J. Tomasi, M. Cossi, J. M. Millam, M. Klene, C. Adamo, R. Cammi, 
 J. W. Ochterski, R. L. Martin, K. Morokuma, O. Farkas, 
 J. B. Foresman, and D. J. Fox, Gaussian, Inc., Wallingford CT, 2016.
 
 ******************************************
 Gaussian 16:  EM64L-G16RevB.01 20-Dec-2017
                 8-Jul-2026 
 ******************************************
 %nproc=64
 Will use up to   64 processors via shared memory.
 %mem=128GB
 -----------------------------------------
 #force b3lyp/3-21G* Geom=PrintInputOrient
 -----------------------------------------
 1/10=7,30=1,38=1/1,3;
 2/9=2000,12=2,17=6,18=5,40=1/2;
 3/5=5,7=1,11=2,25=1,30=1,71=1,74=-5/1,2,3;
 4//1;
 5/5=2,38=5/2;
 6/7=2,8=2,9=2,10=2,28=1/1;
 7/29=1/1,2,3,16;
 1/10=7,30=1/3;
 99//99;
 -------------------------------------------------
 Generated by MDDatasetMaker (Author: Jinzhe Zeng)
 -------------------------------------------------
 Symbolic Z-matrix:
 Charge =  0 Multiplicity = 1
 C                     3.82968   4.44937   1.6703 
 H                     4.77264   3.91812   2.14582 
 H                     3.29565   5.09862   2.33421 
 H                     3.98206   5.17691   0.79688 
 H                     3.11742   3.65643   1.36121 
 

 GradGradGradGradGradGradGradGradGradGradGradGradGradGradGradGradGradGrad
 Berny optimization.
 Initialization pass.
 Trust Radius=3.00D-01 FncErr=1.00D-07 GrdErr=1.00D-07 EigMax=2.50D+02 EigMin=1.00D-04
 Number of steps in this run=      2 maximum allowed number of steps=      2.
 GradGradGradGradGradGradGradGradGradGradGradGradGradGradGradGradGradGrad

                          Input orientation:                          
 ---------------------------------------------------------------------
 Center     Atomic      Atomic             Coordinates (Angstroms)
 Number     Number       Type             X           Y           Z
 ---------------------------------------------------------------------
      1          6           0        3.829680    4.449370    1.670300
      2          1           0        4.772640    3.918120    2.145820
      3          1           0        3.295650    5.098620    2.334210
      4          1           0        3.982060    5.176910    0.796880
      5          1           0        3.117420    3.656430    1.361210
 ---------------------------------------------------------------------
                    Distance matrix (angstroms):
                    1          2          3          4          5
     1  C    0.000000
     2  H    1.182167   0.000000
     3  H    1.071210   1.900150   0.000000
     4  H    1.146907   2.007289   1.685429   0.000000
     5  H    1.109777   1.850364   1.748830   1.837915   0.000000
 Stoichiometry    CH4
 Framework group  C1[X(CH4)]
 Deg. of freedom     9
 Full point group                 C1      NOp   1
 Largest Abelian subgroup         C1      NOp   1
 Largest concise Abelian subgroup C1      NOp   1
                         Standard orientation:                         
 ---------------------------------------------------------------------
 Center     Atomic      Atomic             Coordinates (Angstroms)
 Number     Number       Type             X           Y           Z
 ---------------------------------------------------------------------
      1          6           0       -0.013497   -0.009079   -0.003082
      2          1           0       -1.096217   -0.479541   -0.065538
      3          1           0        0.455303   -0.083001    0.957257
      4          1           0        0.825797   -0.456617   -0.643935
      5          1           0       -0.103903    1.073631   -0.229291
 ---------------------------------------------------------------------
 Rotational constants (GHZ):         167.8911015         143.6234996         135.4430435
 Standard basis: 3-21G* (6D, 7F)
 There are    17 symmetry adapted cartesian basis functions of A   symmetry.
 There are    17 symmetry adapted basis functions of A   symmetry.
    17 basis functions,    27 primitive gaussians,    17 cartesian basis functions
     5 alpha electrons        5 beta electrons
       nuclear repulsion energy        13.0117476858 Hartrees.
 NAtoms=    5 NActive=    5 NUniq=    5 SFac= 1.00D+00 NAtFMM=   60 NAOKFM=F Big=F
 Integral buffers will be    131072 words long.
 Raffenetti 2 integral format.
 Two-electron integral symmetry is turned on.
 One-electron integrals computed using PRISM.
 NBasis=    17 RedAO= T EigKep=  3.67D-02  NBF=    17
 NBsUse=    17 1.00D-06 EigRej= -1.00D+00 NBFU=    17
 ExpMin= 1.83D-01 ExpMax= 1.72D+02 ExpMxC= 1.72D+02 IAcc=3 IRadAn=         5 AccDes= 0.00D+00
 Harris functional with IExCor=  402 and IRadAn=       5 diagonalized for initial guess.
 HarFok:  IExCor=  402 AccDes= 0.00D+00 IRadAn=         5 IDoV= 1 UseB2=F ITyADJ=14
 ICtDFT=  3500011 ScaDFX=  1.000000  1.000000  1.000000  1.000000
 FoFCou: FMM=F IPFlag=           0 FMFlag=      100000 FMFlg1=           0
         NFxFlg=           0 DoJE=T BraDBF=F KetDBF=T FulRan=T
         wScrn=  0.000000 ICntrl=       500 IOpCl=  0 I1Cent=   200000004 NGrid=           0
         NMat0=    1 NMatS0=      1 NMatT0=    0 NMatD0=    1 NMtDS0=    0 NMtDT0=    0
 Petite list used in FoFCou.
 Keep R1 ints in memory in canonical form, NReq=55236554.
 Requested convergence on RMS density matrix=1.00D-08 within 128 cycles.
 Requested convergence on MAX density matrix=1.00D-06.
 Requested convergence on             energy=1.00D-06.
 No special actions if energy rises.
 Integral accuracy reduced to 1.0D-05 until final iterations.
 Initial convergence to 1.0D-05 achieved.  Increase integral accuracy.
 SCF Done:  E(RB3LYP) =  -40.2895634133     A.U. after    9 cycles
            NFock=  9  Conv=0.53D-08     -V/T= 2.0144

 **********************************************************************

            Population analysis using the SCF Density.

 **********************************************************************

 Orbital symmetries:
       Occupied  (A) (A) (A) (A) (A)
       Virtual   (A) (A) (A) (A) (A) (A) (A) (A) (A) (A) (A) (A)
 The electronic state is 1-A.
 Alpha  occ. eigenvalues --  -10.11368  -0.68290  -0.40208  -0.37587  -0.36858
 Alpha virt. eigenvalues --    0.12593   0.17335   0.17839   0.19742   0.69404
 Alpha virt. eigenvalues --    0.71842   0.77414   0.96339   1.01480   1.03645
 Alpha virt. eigenvalues --    1.07144   1.67798
          Condensed to atoms (all electrons):
               1          2          3          4          5
     1  C    5.291240   0.366670   0.359463   0.360971   0.361516
     2  H    0.366670   0.521260  -0.019263  -0.013508  -0.026407
     3  H    0.359463  -0.019263   0.529630  -0.041071  -0.030611
     4  H    0.360971  -0.013508  -0.041071   0.540515  -0.024425
     5  H    0.361516  -0.026407  -0.030611  -0.024425   0.530680
 Mulliken charges:
               1
     1  C   -0.739862
     2  H    0.171248
     3  H    0.201851
     4  H    0.177517
     5  H    0.189246
 Sum of Mulliken charges =   0.00000
 Mulliken charges with hydrogens summed into heavy atoms:
               1
     1  C    0.000000
 Electronic spatial extent (au):  <R**2>=             36.7648
 Charge=              0.0000 electrons
 Dipole moment (field-independent basis, Debye):
    X=              0.1037    Y=              0.0782    Z=              0.0924  Tot=              0.1594
 Quadrupole moment (field-independent basis, Debye-Ang):
   XX=             -7.8192   YY=             -8.4654   ZZ=             -8.7205
   XY=             -0.0215   XZ=              0.0718   YZ=             -0.0307
 Traceless Quadrupole moment (field-independent basis, Debye-Ang):
   XX=              0.5158   YY=             -0.1304   ZZ=             -0.3855
   XY=             -0.0215   XZ=              0.0718   YZ=             -0.0307
 Octapole moment (field-independent basis, Debye-Ang**2):
  XXX=             -0.3156  YYY=              0.9715  ZZZ=              0.6361  XYY=             -0.0574
  XXY=             -0.6743  XXZ=             -0.1496  XZZ=              0.6156  YZZ=             -0.0447
  YYZ=             -0.1761  XYZ=              0.1325
 Hexadecapole moment (field-independent basis, Debye-Ang**3):
 XXXX=            -16.1241 YYYY=            -14.9662 ZZZZ=            -14.5916 XXXY=              0.3542
 XXXZ=             -0.0600 YYYX=             -0.1550 YYYZ=             -0.2963 ZZZX=              0.3318
 ZZZY=             -0.0290 XXYY=             -5.3462 XXZZ=             -5.1616 YYZZ=             -5.1945
 XXYZ=              0.2129 YYXZ=             -0.0191 ZZXY=             -0.2210
 N-N= 1.301174768580D+01 E-N=-1.184510143136D+02  KE= 3.971748438429D+01
 Calling FoFJK, ICntrl=      2127 FMM=F ISym2X=0 I1Cent= 0 IOpClX= 0 NMat=1 NMatS=1 NMatT=0.
 ***** Axes restored to original set *****
 -------------------------------------------------------------------
 Center     Atomic                   Forces (Hartrees/Bohr)
 Number     Number              X              Y              Z
 -------------------------------------------------------------------
      1        6           0.016146366   -0.009120770   -0.018061002
      2        1          -0.033846428    0.030605993   -0.021668527
      3        1          -0.002676789    0.001732480    0.025384850
      4        1           0.012450086   -0.029442009    0.015046443
      5        1           0.007926764    0.006224306   -0.000701763
 -------------------------------------------------------------------
 Cartesian Forces:  Max     0.033846428 RMS     0.018666875

 GradGradGradGradGradGradGradGradGradGradGradGradGradGradGradGradGradGrad
 Berny optimization.
 Search for a local minimum.
 Step number   1 out of a maximum of    2
 All quantities printed in internal units (Hartrees-Bohrs-Radians)
 Second derivative matrix not updated -- first step.
 The second derivative matrix:
                          X1        Y1        Z1        X2        Y2
           X1           0.60748
           Y1          -0.03348   0.64523
           Z1           0.00888   0.00673   0.57129
           X2          -0.19051   0.06611  -0.05909   0.18377
           Y2           0.06737  -0.10903   0.03626  -0.07460   0.09272
           Z2          -0.06281   0.03773  -0.10246   0.06811  -0.03911
           X3          -0.15273   0.09759   0.09019  -0.00389   0.01101
           Y3           0.09339  -0.17942  -0.11090   0.00164  -0.00308
           Z3           0.08406  -0.10864  -0.18978  -0.00473   0.01187
           X4          -0.08121  -0.01214   0.01384   0.01959   0.01570
           Y4          -0.01856  -0.15465   0.11323  -0.00317  -0.00204
           Z4           0.02094   0.11050  -0.19311   0.00078   0.00104
           X5          -0.18303  -0.11807  -0.05382  -0.00895  -0.01949
           Y5          -0.10872  -0.20212  -0.04533   0.01002   0.02143
           Z5          -0.05108  -0.04632  -0.08594  -0.00507  -0.01007
                          Z2        X3        Y3        Z3        X4
           Z2           0.08139
           X3           0.02001   0.13531
           Y3          -0.00670  -0.09742   0.17204
           Z3           0.02265  -0.09413   0.11599   0.18164
           X4          -0.02130  -0.00066  -0.01278   0.01197   0.06024
           Y4           0.00401   0.00177   0.01932  -0.01747   0.01880
           Z4          -0.00038   0.00136   0.01386  -0.01247  -0.02439
           X5          -0.00401   0.02197   0.01517   0.00283   0.00204
           Y5           0.00407  -0.01294  -0.00885  -0.00175  -0.00958
           Z5          -0.00120  -0.01742  -0.01225  -0.00204   0.01989
                          Y4        Z4        X5        Y5        Z5
           Y4           0.14521
           Z4          -0.11720   0.18797
           X5           0.00115   0.00132   0.16798
           Y5          -0.00783  -0.00820   0.12123   0.19738
           Z5           0.01743   0.01799   0.05368   0.05120   0.07118
 ITU=  0
     Eigenvalues ---    0.10147   0.10909   0.11634   0.12728   0.13797
     Eigenvalues ---    0.29787   0.69568   0.71906   0.81262
 Quadratic step=3.813D-01 exceeds max=3.000D-01 adjusted using Lamda=-3.695D-02.
 Angle between NR and scaled steps=   3.64 degrees.
 Angle between quadratic step and forces=  30.88 degrees.
 Linear search not attempted -- first point.
 B after Tr=    -0.005829    0.002474   -0.001573
         Rot=    1.000000    0.000002    0.000002   -0.000006 Ang=   0.00 deg.
 Variable       Old X    -DE/DX   Delta X   Delta X   Delta X     New X
                                 (Linear)    (Quad)   (Total)
    X1        7.23705   0.01615   0.00000  -0.02048  -0.02642   7.21063
    Y1        8.40809  -0.00912   0.00000   0.00887   0.01144   8.41953
    Z1        3.15641  -0.01806   0.00000  -0.00546  -0.00705   3.14936
    X2        9.01898  -0.03385   0.00000  -0.10508  -0.11101   8.90797
    Y2        7.40417   0.03061   0.00000   0.13717   0.13976   7.54394
    Z2        4.05501  -0.02167   0.00000  -0.09977  -0.10135   3.95366
    X3        6.22788  -0.00268   0.00000   0.01590   0.00994   6.23782
    Y3        9.63500   0.00173   0.00000  -0.02784  -0.02527   9.60972
    Z3        4.41102   0.02538   0.00000   0.12921   0.12761   4.53863
    X4        7.52500   0.01245   0.00000   0.10695   0.10100   7.62601
    Y4        9.78294  -0.02944   0.00000  -0.13796  -0.13539   9.64755
    Z4        1.50588   0.01505   0.00000   0.01019   0.00860   1.51449
    X5        5.89107   0.00793   0.00000   0.03240   0.02648   5.91755
    Y5        6.90965   0.00622   0.00000   0.00691   0.00946   6.91911
    Z5        2.57231  -0.00070   0.00000  -0.02624  -0.02782   2.54449
         Item               Value     Threshold  Converged?
 Maximum Force            0.033846     0.000450     NO 
 RMS     Force            0.018667     0.000300     NO 
 Maximum Displacement     0.139763     0.001800     NO 
 RMS     Displacement     0.077547     0.001200     NO 
 Predicted change in Energy=-1.099963D-02
 GradGradGradGradGradGradGradGradGradGradGradGradGradGradGradGradGradGrad

 1\1\GINC-H11R13\Force\RB3LYP\3-21G*\C1H4\ACKGYDJ0BD\08-Jul-2026\0\\#fo
 rce b3lyp/3-21G* Geom=PrintInputOrient\\Generated by MDDatasetMaker (A
 uthor: Jinzhe Zeng)\\0,1\C,3.82968,4.44937,1.6703\H,4.77264,3.91812,2.
 14582\H,3.29565,5.09862,2.33421\H,3.98206,5.17691,0.79688\H,3.11742,3.
 65643,1.36121\\Version=EM64L-G16RevB.01\State=1-A\HF=-40.2895634\RMSD=
 5.307e-09\RMSF=1.867e-02\Dipole=-0.0581108,0.0210665,0.0106338\Quadrup
 ole=-0.0019959,0.1976102,-0.1956143,-0.1822036,0.1604023,-0.1591836\PG
 =C01 [X(C1H4)]\\@


 I MET A TRAVELLER FROM AN ANTIQUE LAND
 WHO SAID... TWO VAST AND TRUNKLESS LEGS OF STONE
 STAND IN THE DESERT..... NEAR THEM,  ON THE SAND,
 HALF SUNK,  A SHATTERED VISAGE LIES,  WHOSE FROWN,
 AND WRINKLED LIP,  AND SNEER OF COLD COMMAND
 TELL THAT ITS SCULPTOR WELL THOSE PASSIONS READ
 WHICH YET SURVIVE,  STAMPED ON THESE LIFELESS THINGS
 THE HAND THAT MOCKED THEM,  AND THE HEART THAT FED-
 AND ON THE PEDESTAL THESE WORDS APPEAR 
 MY NAME IS OZYMANDIAS, KING OF KINGS--   
 LOOK ON MY WORKS YE MIGHTY AND DESPAIR. 
 NOTHING BESIDE REMAINS,  ROUND THE DECAY 
 OF THAT COLOSSAL WRECK,  BOUNDLESS AND BARE
 THE LONE AND LEVEL SANDS STRETCH FAR AWAY.
                                    SHELLEY
 Job cpu time:       0 days  0 hours  2 minutes 22.3 seconds.
 Elapsed time:       0 days  0 hours  0 minutes  2.9 seconds.
 File lengths (MBytes):  RWF=      6 Int=      0 D2E=      0 Chk=      1 Scr=      1
 Normal termination of Gaussian 16 at Wed Jul  8 17:31:49 2026.
