 Entering Gaussian System, Link 0=g16
 Input=data_H1_02.gjf
 Output=data_H1_02.log
 Initial command:
 /work/home/ackgydj0bd/apprepo/gaussian/16b.01-none_v1.3/app/g16/l1.exe "/work/home/ackgydj0bd/apprepo/gaussian/16b.01-none_v1.3/app/g16/scratch/Gau-36934.inp" -scrdir="/work/home/ackgydj0bd/apprepo/gaussian/16b.01-none_v1.3/app/g16/scratch/"
 Entering Link 1 = /work/home/ackgydj0bd/apprepo/gaussian/16b.01-none_v1.3/app/g16/l1.exe PID=     36935.
  
 Copyright (c) 1988-2017, Gaussian, Inc.  All Rights Reserved.
  
 This is part of the Gaussian(R) 16 program.  It is based on
 the Gaussian(R) 09 system (copyright 2009, Gaussian, Inc.),
 the Gaussian(R) 03 system (copyright 2003, Gaussian, Inc.),
 the Gaussian(R) 98 system (copyright 1998, Gaussian, Inc.),
 the Gaussian(R) 94 system (copyright 1995, Gaussian, Inc.),
 the Gaussian 92(TM) system (copyright 1992, Gaussian, Inc.),
 the Gaussian 90(TM) system (copyright 1990, Gaussian, Inc.),
 the Gaussian 88(TM) system (copyright 1988, Gaussian, Inc.),
 the Gaussian 86(TM) system (copyright 1986, Carnegie Mellon
 University), and the Gaussian 82(TM) system (copyright 1983,
 Carnegie Mellon University). Gaussian is a federally registered
 trademark of Gaussian, Inc.
  
 This software contains proprietary and confidential information,
 including trade secrets, belonging to Gaussian, Inc.
  
 This software is provided under written license and may be
 used, copied, transmitted, or stored only in accord with that
 written license.
  
 The following legend is applicable only to US Government
 contracts under FAR:
  
                    RESTRICTED RIGHTS LEGEND
  
 Use, reproduction and disclosure by the US Government is
 subject to restrictions as set forth in subparagraphs (a)
 and (c) of the Commercial Computer Software - Restricted
 Rights clause in FAR 52.227-19.
  
 Gaussian, Inc.
 340 Quinnipiac St., Bldg. 40, Wallingford CT 06492
  
  
 ---------------------------------------------------------------
 Warning -- This program may not be used in any manner that
 competes with the business of Gaussian, Inc. or will provide
 assistance to any competitor of Gaussian, Inc.  The licensee
 of this program is prohibited from giving any competitor of
 Gaussian, Inc. access to this program.  By using this program,
 the user acknowledges that Gaussian, Inc. is engaged in the
 business of creating and licensing software in the field of
 computational chemistry and represents and warrants to the
 licensee that it is not a competitor of Gaussian, Inc. and that
 it will not use this program in any manner prohibited above.
 ---------------------------------------------------------------
  

 Cite this work as:
 Gaussian 16, Revision B.01,
 M. J. Frisch, G. W. Trucks, H. B. Schlegel, G. E. Scuseria, 
 M. A. Robb, J. R. Cheeseman, G. Scalmani, V. Barone, 
 G. A. Petersson, H. Nakatsuji, X. Li, M. Caricato, A. V. Marenich, 
 J. Bloino, B. G. Janesko, R. Gomperts, B. Mennucci, H. P. Hratchian, 
 J. V. Ortiz, A. F. Izmaylov, J. L. Sonnenberg, D. Williams-Young, 
 F. Ding, F. Lipparini, F. Egidi, J. Goings, B. Peng, A. Petrone, 
 T. Henderson, D. Ranasinghe, V. G. Zakrzewski, J. Gao, N. Rega, 
 G. Zheng, W. Liang, M. Hada, M. Ehara, K. Toyota, R. Fukuda, 
 J. Hasegawa, M. Ishida, T. Nakajima, Y. Honda, O. Kitao, H. Nakai, 
 T. Vreven, K. Throssell, J. A. Montgomery, Jr., J. E. Peralta, 
 F. Ogliaro, M. J. Bearpark, J. J. Heyd, E. N. Brothers, K. N. Kudin, 
 V. N. Staroverov, T. A. Keith, R. Kobayashi, J. Normand, 
 K. Raghavachari, A. P. Rendell, J. C. Burant, S. S. Iyengar, 
 J. Tomasi, M. Cossi, J. M. Millam, M. Klene, C. Adamo, R. Cammi, 
 J. W. Ochterski, R. L. Martin, K. Morokuma, O. Farkas, 
 J. B. Foresman, and D. J. Fox, Gaussian, Inc., Wallingford CT, 2016.
 
 ******************************************
 Gaussian 16:  EM64L-G16RevB.01 20-Dec-2017
                 8-Jul-2026 
 ******************************************
 %nproc=64
 Will use up to   64 processors via shared memory.
 %mem=128GB
 -----------------------------------------
 #force b3lyp/3-21G* Geom=PrintInputOrient
 -----------------------------------------
 1/10=7,30=1,38=1/1,3;
 2/9=2000,12=2,17=6,18=5,40=1/2;
 3/5=5,7=1,11=2,25=1,30=1,71=1,74=-5/1,2,3;
 4//1;
 5/5=2,38=5/2;
 6/7=2,8=2,9=2,10=2,28=1/1;
 7/29=1/1,2,3,16;
 1/10=7,30=1/3;
 99//99;
 -------------------------------------------------
 Generated by MDDatasetMaker (Author: Jinzhe Zeng)
 -------------------------------------------------
 Symbolic Z-matrix:
 Charge =  0 Multiplicity = 1
 C                     15.886    21.936    1.09 
 H                     15.564    22.942    1.259 
 H                     16.672    21.93     0.363 
 H                     16.246    21.517    2.007 
 H                     15.064    21.353    0.73 
 

 GradGradGradGradGradGradGradGradGradGradGradGradGradGradGradGradGradGrad
 Berny optimization.
 Initialization pass.
 Trust Radius=3.00D-01 FncErr=1.00D-07 GrdErr=1.00D-07 EigMax=2.50D+02 EigMin=1.00D-04
 Number of steps in this run=      2 maximum allowed number of steps=      2.
 GradGradGradGradGradGradGradGradGradGradGradGradGradGradGradGradGradGrad

                          Input orientation:                          
 ---------------------------------------------------------------------
 Center     Atomic      Atomic             Coordinates (Angstroms)
 Number     Number       Type             X           Y           Z
 ---------------------------------------------------------------------
      1          6           0       15.886000   21.936000    1.090000
      2          1           0       15.564000   22.942000    1.259000
      3          1           0       16.672000   21.930000    0.363000
      4          1           0       16.246000   21.517000    2.007000
      5          1           0       15.064000   21.353000    0.730000
 ---------------------------------------------------------------------
                    Distance matrix (angstroms):
                    1          2          3          4          5
     1  C    0.000000
     2  H    1.069711   0.000000
     3  H    1.070682   1.747748   0.000000
     4  H    1.070537   1.747928   1.747793   0.000000
     5  H    1.070128   1.747788   1.747364   1.747784   0.000000
 Stoichiometry    CH4
 Framework group  C1[X(CH4)]
 Deg. of freedom     9
 Full point group                 C1      NOp   1
 Largest Abelian subgroup         C1      NOp   1
 Largest concise Abelian subgroup C1      NOp   1
                         Standard orientation:                         
 ---------------------------------------------------------------------
 Center     Atomic      Atomic             Coordinates (Angstroms)
 Number     Number       Type             X           Y           Z
 ---------------------------------------------------------------------
      1          6           0        0.000088    0.000244   -0.000151
      2          1           0        0.482672    0.953614   -0.049939
      3          1           0        0.314011   -0.513085    0.885460
      4          1           0       -1.061287    0.137661    0.025306
      5          1           0        0.264074   -0.579652   -0.859922
 ---------------------------------------------------------------------
 Rotational constants (GHZ):         164.1841954         164.1810709         164.1303223
 Standard basis: 3-21G* (6D, 7F)
 There are    17 symmetry adapted cartesian basis functions of A   symmetry.
 There are    17 symmetry adapted basis functions of A   symmetry.
    17 basis functions,    27 primitive gaussians,    17 cartesian basis functions
     5 alpha electrons        5 beta electrons
       nuclear repulsion energy        13.6831374151 Hartrees.
 NAtoms=    5 NActive=    5 NUniq=    5 SFac= 1.00D+00 NAtFMM=   60 NAOKFM=F Big=F
 Integral buffers will be    131072 words long.
 Raffenetti 2 integral format.
 Two-electron integral symmetry is turned on.
 One-electron integrals computed using PRISM.
 NBasis=    17 RedAO= T EigKep=  3.16D-02  NBF=    17
 NBsUse=    17 1.00D-06 EigRej= -1.00D+00 NBFU=    17
 ExpMin= 1.83D-01 ExpMax= 1.72D+02 ExpMxC= 1.72D+02 IAcc=3 IRadAn=         5 AccDes= 0.00D+00
 Harris functional with IExCor=  402 and IRadAn=       5 diagonalized for initial guess.
 HarFok:  IExCor=  402 AccDes= 0.00D+00 IRadAn=         5 IDoV= 1 UseB2=F ITyADJ=14
 ICtDFT=  3500011 ScaDFX=  1.000000  1.000000  1.000000  1.000000
 FoFCou: FMM=F IPFlag=           0 FMFlag=      100000 FMFlg1=           0
         NFxFlg=           0 DoJE=T BraDBF=F KetDBF=T FulRan=T
         wScrn=  0.000000 ICntrl=       500 IOpCl=  0 I1Cent=   200000004 NGrid=           0
         NMat0=    1 NMatS0=      1 NMatT0=    0 NMatD0=    1 NMtDS0=    0 NMtDT0=    0
 Petite list used in FoFCou.
 Keep R1 ints in memory in canonical form, NReq=55236554.
 Requested convergence on RMS density matrix=1.00D-08 within 128 cycles.
 Requested convergence on MAX density matrix=1.00D-06.
 Requested convergence on             energy=1.00D-06.
 No special actions if energy rises.
 Integral accuracy reduced to 1.0D-05 until final iterations.
 Initial convergence to 1.0D-05 achieved.  Increase integral accuracy.
 SCF Done:  E(RB3LYP) =  -40.3001935977     A.U. after    8 cycles
            NFock=  8  Conv=0.72D-08     -V/T= 2.0076

 **********************************************************************

            Population analysis using the SCF Density.

 **********************************************************************

 Orbital symmetries:
       Occupied  (A) (A) (A) (A) (A)
       Virtual   (A) (A) (A) (A) (A) (A) (A) (A) (A) (A) (A) (A)
 The electronic state is 1-A.
 Alpha  occ. eigenvalues --  -10.09025  -0.69698  -0.39307  -0.39283  -0.39268
 Alpha virt. eigenvalues --    0.15263   0.20174   0.20187   0.20209   0.69612
 Alpha virt. eigenvalues --    0.69623   0.69637   1.05709   1.07436   1.07467
 Alpha virt. eigenvalues --    1.07517   1.70656
          Condensed to atoms (all electrons):
               1          2          3          4          5
     1  C    5.301557   0.370544   0.370364   0.370424   0.370448
     2  H    0.370544   0.513626  -0.026740  -0.026718  -0.026715
     3  H    0.370364  -0.026740   0.514230  -0.026765  -0.026797
     4  H    0.370424  -0.026718  -0.026765   0.514053  -0.026746
     5  H    0.370448  -0.026715  -0.026797  -0.026746   0.513933
 Mulliken charges:
               1
     1  C   -0.783338
     2  H    0.196003
     3  H    0.195707
     4  H    0.195751
     5  H    0.195877
 Sum of Mulliken charges =   0.00000
 Mulliken charges with hydrogens summed into heavy atoms:
               1
     1  C    0.000000
 Electronic spatial extent (au):  <R**2>=             34.6397
 Charge=              0.0000 electrons
 Dipole moment (field-independent basis, Debye):
    X=              0.0001    Y=             -0.0005    Z=              0.0002  Tot=              0.0005
 Quadrupole moment (field-independent basis, Debye-Ang):
   XX=             -8.1946   YY=             -8.1931   ZZ=             -8.1963
   XY=              0.0009   XZ=             -0.0004   YZ=              0.0006
 Traceless Quadrupole moment (field-independent basis, Debye-Ang):
   XX=              0.0001   YY=              0.0016   ZZ=             -0.0017
   XY=              0.0009   XZ=             -0.0004   YZ=              0.0006
 Octapole moment (field-independent basis, Debye-Ang**2):
  XXX=             -0.7481  YYY=              0.3924  ZZZ=              0.0411  XYY=              0.4287
  XXY=              0.2077  XXZ=              0.0318  XZZ=              0.3203  YZZ=             -0.6001
  YYZ=             -0.0735  XYZ=             -0.0272
 Hexadecapole moment (field-independent basis, Debye-Ang**3):
 XXXX=            -13.9407 YYYY=            -14.2864 ZZZZ=            -14.1282 XXXY=             -0.0882
 XXXZ=             -0.0269 YYYX=              0.3473 YYYZ=              0.0062 ZZZX=              0.0529
 ZZZY=              0.0143 XXYY=             -4.8211 XXZZ=             -4.9855 YYZZ=             -4.6334
 XXYZ=             -0.0181 YYXZ=             -0.0276 ZZXY=             -0.2553
 N-N= 1.368313741510D+01 E-N=-1.200052275689D+02  KE= 3.999772652096D+01
 Calling FoFJK, ICntrl=      2127 FMM=F ISym2X=0 I1Cent= 0 IOpClX= 0 NMat=1 NMatS=1 NMatT=0.
 ***** Axes restored to original set *****
 -------------------------------------------------------------------
 Center     Atomic                   Forces (Hartrees/Bohr)
 Number     Number              X              Y              Z
 -------------------------------------------------------------------
      1        6           0.000573513   -0.000504583   -0.000139584
      2        1          -0.005100080    0.015817445    0.002674768
      3        1           0.011888883   -0.000025996   -0.010981345
      4        1           0.005425776   -0.006321301    0.013967279
      5        1          -0.012788091   -0.008965565   -0.005521118
 -------------------------------------------------------------------
 Cartesian Forces:  Max     0.015817445 RMS     0.008504031

 GradGradGradGradGradGradGradGradGradGradGradGradGradGradGradGradGradGrad
 Berny optimization.
 Search for a local minimum.
 Step number   1 out of a maximum of    2
 All quantities printed in internal units (Hartrees-Bohrs-Radians)
 Second derivative matrix not updated -- first step.
 The second derivative matrix:
                          X1        Y1        Z1        X2        Y2
           X1           0.70735
           Y1          -0.00025   0.70891
           Z1           0.00037   0.00039   0.70715
           X2          -0.10611   0.08297   0.01389   0.08759
           Y2           0.08299  -0.33879  -0.04357  -0.08875   0.33644
           Z2           0.01389  -0.04355  -0.08686  -0.01488   0.04658
           X3          -0.23673   0.00121   0.14563  -0.00136  -0.00074
           Y3           0.00123  -0.07944  -0.00113   0.02631   0.01278
           Z3           0.14563  -0.00111  -0.21399  -0.00169  -0.00090
           X4          -0.11236   0.03848  -0.08422  -0.00158   0.00078
           Y4           0.03848  -0.12427   0.09795   0.00858  -0.00272
           Z4          -0.08420   0.09792  -0.29380   0.00454  -0.00155
           X5          -0.25214  -0.12241  -0.07566   0.02146   0.00571
           Y5          -0.12245  -0.16641  -0.05364  -0.02912  -0.00770
           Z5          -0.07569  -0.05365  -0.11250  -0.00186  -0.00057
                          Z2        X3        Y3        Z3        X4
           Z2           0.06702
           X3           0.00178   0.22740
           Y3          -0.02594  -0.00129   0.05913
           Z3           0.00214  -0.15572   0.00119   0.20307
           X4          -0.00768   0.02170  -0.01456   0.02358   0.09438
           Y4           0.03252  -0.00336   0.00273  -0.00365  -0.04114
           Z4           0.01787  -0.01005   0.00696  -0.01093   0.09004
           X5           0.00689  -0.01100  -0.01169  -0.01180  -0.00214
           Y5          -0.00961   0.00417   0.00480   0.00447   0.01643
           Z5          -0.00017   0.01837   0.01892   0.01970  -0.02172
                          Y4        Z4        X5        Y5        Z5
           Y4           0.10702
           Z4          -0.10475   0.28841
           X5          -0.00256  -0.00033   0.24383
           Y5           0.01723   0.00142   0.13095   0.15208
           Z5          -0.02207  -0.00155   0.08090   0.05736   0.09452
 ITU=  0
     Eigenvalues ---    0.11734   0.11735   0.14137   0.14142   0.14151
     Eigenvalues ---    0.37197   0.86782   0.86886   0.87052
 Angle between quadratic step and forces=   1.13 degrees.
 Linear search not attempted -- first point.
 B after Tr=     0.000124   -0.000126   -0.000066
         Rot=    1.000000    0.000000    0.000000    0.000000 Ang=   0.00 deg.
 Variable       Old X    -DE/DX   Delta X   Delta X   Delta X     New X
                                 (Linear)    (Quad)   (Total)
    X1       30.02019   0.00057   0.00000   0.00043   0.00055  30.02074
    Y1       41.45303  -0.00050   0.00000  -0.00043  -0.00056  41.45247
    Z1        2.05980  -0.00014   0.00000  -0.00023  -0.00029   2.05951
    X2       29.41170  -0.00510   0.00000  -0.01356  -0.01344  29.39826
    Y2       43.35410   0.01582   0.00000   0.04188   0.04175  43.39585
    Z2        2.37917   0.00267   0.00000   0.00716   0.00709   2.38626
    X3       31.50551   0.01189   0.00000   0.03247   0.03260  31.53811
    Y3       41.44169  -0.00003   0.00000   0.00011  -0.00002  41.44167
    Z3        0.68597  -0.01098   0.00000  -0.02976  -0.02982   0.65615
    X4       30.70049   0.00543   0.00000   0.01458   0.01470  30.71519
    Y4       40.66124  -0.00632   0.00000  -0.01696  -0.01708  40.64415
    Z4        3.79268   0.01397   0.00000   0.03775   0.03769   3.83037
    X5       28.46683  -0.01279   0.00000  -0.03454  -0.03441  28.43242
    Y5       40.35132  -0.00897   0.00000  -0.02396  -0.02409  40.32723
    Z5        1.37950  -0.00552   0.00000  -0.01460  -0.01467   1.36483
         Item               Value     Threshold  Converged?
 Maximum Force            0.015817     0.000450     NO 
 RMS     Force            0.008504     0.000300     NO 
 Maximum Displacement     0.041753     0.001800     NO 
 RMS     Displacement     0.022855     0.001200     NO 
 Predicted change in Energy=-1.457399D-03
 GradGradGradGradGradGradGradGradGradGradGradGradGradGradGradGradGradGrad

 1\1\GINC-H11R13\Force\RB3LYP\3-21G*\C1H4\ACKGYDJ0BD\08-Jul-2026\0\\#fo
 rce b3lyp/3-21G* Geom=PrintInputOrient\\Generated by MDDatasetMaker (A
 uthor: Jinzhe Zeng)\\0,1\C,15.886,21.936,1.09\H,15.564,22.942,1.259\H,
 16.672,21.93,0.363\H,16.246,21.517,2.007\H,15.064,21.353,0.73\\Version
 =EM64L-G16RevB.01\State=1-A\HF=-40.3001936\RMSD=7.184e-09\RMSF=8.504e-
 03\Dipole=0.0000783,-0.0001303,-0.0001483\Quadrupole=-0.0009242,0.0013
 671,-0.0004429,-0.0004765,0.0005611,0.0004476\PG=C01 [X(C1H4)]\\@


 PERICLES, SOPHOCLES,
 PELOPONESIAN WAR,
 FRENCH VERBS, LATIN VERBS
 H2SO4.
 Job cpu time:       0 days  0 hours  2 minutes 40.3 seconds.
 Elapsed time:       0 days  0 hours  0 minutes  3.3 seconds.
 File lengths (MBytes):  RWF=      6 Int=      0 D2E=      0 Chk=      1 Scr=      1
 Normal termination of Gaussian 16 at Wed Jul  8 17:32:06 2026.
