 Entering Gaussian System, Link 0=g16
 Input=data_H1_01.gjf
 Output=data_H1_01.log
 Initial command:
 /work/home/ackgydj0bd/apprepo/gaussian/16b.01-none_v1.3/app/g16/l1.exe "/work/home/ackgydj0bd/apprepo/gaussian/16b.01-none_v1.3/app/g16/scratch/Gau-35220.inp" -scrdir="/work/home/ackgydj0bd/apprepo/gaussian/16b.01-none_v1.3/app/g16/scratch/"
 Entering Link 1 = /work/home/ackgydj0bd/apprepo/gaussian/16b.01-none_v1.3/app/g16/l1.exe PID=     35221.
  
 Copyright (c) 1988-2017, Gaussian, Inc.  All Rights Reserved.
  
 This is part of the Gaussian(R) 16 program.  It is based on
 the Gaussian(R) 09 system (copyright 2009, Gaussian, Inc.),
 the Gaussian(R) 03 system (copyright 2003, Gaussian, Inc.),
 the Gaussian(R) 98 system (copyright 1998, Gaussian, Inc.),
 the Gaussian(R) 94 system (copyright 1995, Gaussian, Inc.),
 the Gaussian 92(TM) system (copyright 1992, Gaussian, Inc.),
 the Gaussian 90(TM) system (copyright 1990, Gaussian, Inc.),
 the Gaussian 88(TM) system (copyright 1988, Gaussian, Inc.),
 the Gaussian 86(TM) system (copyright 1986, Carnegie Mellon
 University), and the Gaussian 82(TM) system (copyright 1983,
 Carnegie Mellon University). Gaussian is a federally registered
 trademark of Gaussian, Inc.
  
 This software contains proprietary and confidential information,
 including trade secrets, belonging to Gaussian, Inc.
  
 This software is provided under written license and may be
 used, copied, transmitted, or stored only in accord with that
 written license.
  
 The following legend is applicable only to US Government
 contracts under FAR:
  
                    RESTRICTED RIGHTS LEGEND
  
 Use, reproduction and disclosure by the US Government is
 subject to restrictions as set forth in subparagraphs (a)
 and (c) of the Commercial Computer Software - Restricted
 Rights clause in FAR 52.227-19.
  
 Gaussian, Inc.
 340 Quinnipiac St., Bldg. 40, Wallingford CT 06492
  
  
 ---------------------------------------------------------------
 Warning -- This program may not be used in any manner that
 competes with the business of Gaussian, Inc. or will provide
 assistance to any competitor of Gaussian, Inc.  The licensee
 of this program is prohibited from giving any competitor of
 Gaussian, Inc. access to this program.  By using this program,
 the user acknowledges that Gaussian, Inc. is engaged in the
 business of creating and licensing software in the field of
 computational chemistry and represents and warrants to the
 licensee that it is not a competitor of Gaussian, Inc. and that
 it will not use this program in any manner prohibited above.
 ---------------------------------------------------------------
  

 Cite this work as:
 Gaussian 16, Revision B.01,
 M. J. Frisch, G. W. Trucks, H. B. Schlegel, G. E. Scuseria, 
 M. A. Robb, J. R. Cheeseman, G. Scalmani, V. Barone, 
 G. A. Petersson, H. Nakatsuji, X. Li, M. Caricato, A. V. Marenich, 
 J. Bloino, B. G. Janesko, R. Gomperts, B. Mennucci, H. P. Hratchian, 
 J. V. Ortiz, A. F. Izmaylov, J. L. Sonnenberg, D. Williams-Young, 
 F. Ding, F. Lipparini, F. Egidi, J. Goings, B. Peng, A. Petrone, 
 T. Henderson, D. Ranasinghe, V. G. Zakrzewski, J. Gao, N. Rega, 
 G. Zheng, W. Liang, M. Hada, M. Ehara, K. Toyota, R. Fukuda, 
 J. Hasegawa, M. Ishida, T. Nakajima, Y. Honda, O. Kitao, H. Nakai, 
 T. Vreven, K. Throssell, J. A. Montgomery, Jr., J. E. Peralta, 
 F. Ogliaro, M. J. Bearpark, J. J. Heyd, E. N. Brothers, K. N. Kudin, 
 V. N. Staroverov, T. A. Keith, R. Kobayashi, J. Normand, 
 K. Raghavachari, A. P. Rendell, J. C. Burant, S. S. Iyengar, 
 J. Tomasi, M. Cossi, J. M. Millam, M. Klene, C. Adamo, R. Cammi, 
 J. W. Ochterski, R. L. Martin, K. Morokuma, O. Farkas, 
 J. B. Foresman, and D. J. Fox, Gaussian, Inc., Wallingford CT, 2016.
 
 ******************************************
 Gaussian 16:  EM64L-G16RevB.01 20-Dec-2017
                 8-Jul-2026 
 ******************************************
 %nproc=64
 Will use up to   64 processors via shared memory.
 %mem=128GB
 -----------------------------------------
 #force b3lyp/3-21G* Geom=PrintInputOrient
 -----------------------------------------
 1/10=7,30=1,38=1/1,3;
 2/9=2000,12=2,17=6,18=5,40=1/2;
 3/5=5,7=1,11=2,25=1,30=1,71=1,74=-5/1,2,3;
 4//1;
 5/5=2,38=5/2;
 6/7=2,8=2,9=2,10=2,28=1/1;
 7/29=1/1,2,3,16;
 1/10=7,30=1/3;
 99//99;
 -------------------------------------------------
 Generated by MDDatasetMaker (Author: Jinzhe Zeng)
 -------------------------------------------------
 Symbolic Z-matrix:
 Charge =  0 Multiplicity = 1
 C                     20.8776   2.58745   3.78375 
 H                     21.5108   2.10315   4.56182 
 H                     21.0954   3.6639    3.61054 
 H                     20.8924   2.06815   2.81957 
 H                     19.8583   2.51772   4.08884 
 

 GradGradGradGradGradGradGradGradGradGradGradGradGradGradGradGradGradGrad
 Berny optimization.
 Initialization pass.
 Trust Radius=3.00D-01 FncErr=1.00D-07 GrdErr=1.00D-07 EigMax=2.50D+02 EigMin=1.00D-04
 Number of steps in this run=      2 maximum allowed number of steps=      2.
 GradGradGradGradGradGradGradGradGradGradGradGradGradGradGradGradGradGrad

                          Input orientation:                          
 ---------------------------------------------------------------------
 Center     Atomic      Atomic             Coordinates (Angstroms)
 Number     Number       Type             X           Y           Z
 ---------------------------------------------------------------------
      1          6           0       20.877600    2.587450    3.783750
      2          1           0       21.510800    2.103150    4.561820
      3          1           0       21.095400    3.663900    3.610540
      4          1           0       20.892400    2.068150    2.819570
      5          1           0       19.858300    2.517720    4.088840
 ---------------------------------------------------------------------
                    Distance matrix (angstroms):
                    1          2          3          4          5
     1  C    0.000000
     2  H    1.113949   0.000000
     3  H    1.111838   1.874415   0.000000
     4  H    1.095233   1.849075   1.792557   0.000000
     5  H    1.066262   1.768144   1.752973   1.697799   0.000000
 Stoichiometry    CH4
 Framework group  C1[X(CH4)]
 Deg. of freedom     9
 Full point group                 C1      NOp   1
 Largest Abelian subgroup         C1      NOp   1
 Largest concise Abelian subgroup C1      NOp   1
                         Standard orientation:                         
 ---------------------------------------------------------------------
 Center     Atomic      Atomic             Coordinates (Angstroms)
 Number     Number       Type             X           Y           Z
 ---------------------------------------------------------------------
      1          6           0        0.009443    0.008070   -0.010528
      2          1           0        1.082408    0.208624   -0.232801
      3          1           0       -0.663926    0.883271   -0.140068
      4          1           0       -0.404510   -0.837468   -0.570210
      5          1           0       -0.070628   -0.302845    1.006249
 ---------------------------------------------------------------------
 Rotational constants (GHZ):         165.4990030         156.9766748         147.5180339
 Standard basis: 3-21G* (6D, 7F)
 There are    17 symmetry adapted cartesian basis functions of A   symmetry.
 There are    17 symmetry adapted basis functions of A   symmetry.
    17 basis functions,    27 primitive gaussians,    17 cartesian basis functions
     5 alpha electrons        5 beta electrons
       nuclear repulsion energy        13.3592549189 Hartrees.
 NAtoms=    5 NActive=    5 NUniq=    5 SFac= 1.00D+00 NAtFMM=   60 NAOKFM=F Big=F
 Integral buffers will be    131072 words long.
 Raffenetti 2 integral format.
 Two-electron integral symmetry is turned on.
 One-electron integrals computed using PRISM.
 NBasis=    17 RedAO= T EigKep=  3.39D-02  NBF=    17
 NBsUse=    17 1.00D-06 EigRej= -1.00D+00 NBFU=    17
 ExpMin= 1.83D-01 ExpMax= 1.72D+02 ExpMxC= 1.72D+02 IAcc=3 IRadAn=         5 AccDes= 0.00D+00
 Harris functional with IExCor=  402 and IRadAn=       5 diagonalized for initial guess.
 HarFok:  IExCor=  402 AccDes= 0.00D+00 IRadAn=         5 IDoV= 1 UseB2=F ITyADJ=14
 ICtDFT=  3500011 ScaDFX=  1.000000  1.000000  1.000000  1.000000
 FoFCou: FMM=F IPFlag=           0 FMFlag=      100000 FMFlg1=           0
         NFxFlg=           0 DoJE=T BraDBF=F KetDBF=T FulRan=T
         wScrn=  0.000000 ICntrl=       500 IOpCl=  0 I1Cent=   200000004 NGrid=           0
         NMat0=    1 NMatS0=      1 NMatT0=    0 NMatD0=    1 NMtDS0=    0 NMtDT0=    0
 Petite list used in FoFCou.
 Keep R1 ints in memory in canonical form, NReq=55236554.
 Requested convergence on RMS density matrix=1.00D-08 within 128 cycles.
 Requested convergence on MAX density matrix=1.00D-06.
 Requested convergence on             energy=1.00D-06.
 No special actions if energy rises.
 Integral accuracy reduced to 1.0D-05 until final iterations.
 Initial convergence to 1.0D-05 achieved.  Increase integral accuracy.
 SCF Done:  E(RB3LYP) =  -40.2985019084     A.U. after    9 cycles
            NFock=  9  Conv=0.22D-08     -V/T= 2.0110

 **********************************************************************

            Population analysis using the SCF Density.

 **********************************************************************

 Orbital symmetries:
       Occupied  (A) (A) (A) (A) (A)
       Virtual   (A) (A) (A) (A) (A) (A) (A) (A) (A) (A) (A) (A)
 The electronic state is 1-A.
 Alpha  occ. eigenvalues --  -10.10131  -0.69011  -0.39566  -0.38721  -0.38067
 Alpha virt. eigenvalues --    0.14223   0.18898   0.19317   0.19624   0.68954
 Alpha virt. eigenvalues --    0.71243   0.72986   1.00953   1.04506   1.05337
 Alpha virt. eigenvalues --    1.07644   1.69707
          Condensed to atoms (all electrons):
               1          2          3          4          5
     1  C    5.298175   0.371396   0.367848   0.365441   0.361300
     2  H    0.371396   0.510376  -0.019445  -0.020780  -0.027838
     3  H    0.367848  -0.019445   0.520324  -0.026346  -0.028828
     4  H    0.365441  -0.020780  -0.026346   0.525120  -0.034502
     5  H    0.361300  -0.027838  -0.028828  -0.034502   0.529515
 Mulliken charges:
               1
     1  C   -0.764160
     2  H    0.186292
     3  H    0.186448
     4  H    0.191067
     5  H    0.200353
 Sum of Mulliken charges =   0.00000
 Mulliken charges with hydrogens summed into heavy atoms:
               1
     1  C    0.000000
 Electronic spatial extent (au):  <R**2>=             35.6096
 Charge=              0.0000 electrons
 Dipole moment (field-independent basis, Debye):
    X=             -0.0479    Y=             -0.0652    Z=              0.0928  Tot=              0.1231
 Quadrupole moment (field-independent basis, Debye-Ang):
   XX=             -8.0215   YY=             -8.2571   ZZ=             -8.5099
   XY=              0.0125   XZ=             -0.0051   YZ=             -0.0141
 Traceless Quadrupole moment (field-independent basis, Debye-Ang):
   XX=              0.2413   YY=              0.0057   ZZ=             -0.2471
   XY=              0.0125   XZ=             -0.0051   YZ=             -0.0141
 Octapole moment (field-independent basis, Debye-Ang**2):
  XXX=              0.6649  YYY=             -0.1041  ZZZ=              0.7261  XYY=             -0.6241
  XXY=              0.3466  XXZ=             -0.2481  XZZ=             -0.1437  YZZ=             -0.4127
  YYZ=             -0.2185  XYZ=             -0.1036
 Hexadecapole moment (field-independent basis, Debye-Ang**3):
 XXXX=            -14.8627 YYYY=            -14.9361 ZZZZ=            -14.1409 XXXY=              0.0889
 XXXZ=             -0.2388 YYYX=             -0.1980 YYYZ=              0.1977 ZZZX=             -0.0181
 ZZZY=             -0.1968 XXYY=             -4.9015 XXZZ=             -5.1921 YYZZ=             -4.8872
 XXYZ=             -0.0437 YYXZ=              0.2296 ZZXY=              0.1493
 N-N= 1.335925491894D+01 E-N=-1.192593235702D+02  KE= 3.985987354776D+01
 Calling FoFJK, ICntrl=      2127 FMM=F ISym2X=0 I1Cent= 0 IOpClX= 0 NMat=1 NMatS=1 NMatT=0.
 ***** Axes restored to original set *****
 -------------------------------------------------------------------
 Center     Atomic                   Forces (Hartrees/Bohr)
 Number     Number              X              Y              Z
 -------------------------------------------------------------------
      1        6           0.007552197    0.005186309   -0.005015269
      2        1          -0.003103078    0.009008080   -0.014260505
      3        1           0.004669621   -0.012674043    0.005792784
      4        1           0.010967785   -0.002184092    0.001532300
      5        1          -0.020086525    0.000663745    0.011950690
 -------------------------------------------------------------------
 Cartesian Forces:  Max     0.020086525 RMS     0.009285669

 GradGradGradGradGradGradGradGradGradGradGradGradGradGradGradGradGradGrad
 Berny optimization.
 Search for a local minimum.
 Step number   1 out of a maximum of    2
 All quantities printed in internal units (Hartrees-Bohrs-Radians)
 Second derivative matrix not updated -- first step.
 The second derivative matrix:
                          X1        Y1        Z1        X2        Y2
           X1           0.65477
           Y1          -0.00104   0.65409
           Z1           0.02240  -0.01544   0.66371
           X2          -0.15077   0.05721  -0.09739   0.13961
           Y2           0.06070  -0.12906   0.07463  -0.06492   0.10797
           Z2          -0.10145   0.07345  -0.19614   0.10790  -0.08030
           X3          -0.08186  -0.04188  -0.00110   0.01307   0.02252
           Y3          -0.04894  -0.30902   0.03891  -0.00076  -0.00101
           Z3           0.00043   0.04083  -0.08366   0.01171   0.02203
           X4          -0.06963   0.00321  -0.00607   0.00682  -0.01608
           Y4           0.00676  -0.13954  -0.10861  -0.00638   0.01791
           Z4           0.00054  -0.10908  -0.28374   0.00354  -0.00989
           X5          -0.35250  -0.01750   0.08216  -0.00873  -0.00222
           Y5          -0.01748  -0.07648   0.01051   0.01485   0.00418
           Z5           0.07807   0.01023  -0.10016  -0.02576  -0.00647
                          Z2        X3        Y3        Z3        X4
           Z2           0.18406
           X3           0.00338   0.06410
           Y3          -0.00001   0.05204   0.30689
           Z3           0.00419  -0.00350  -0.04127   0.06315
           X4          -0.01556   0.00149  -0.00157  -0.00787   0.05320
           Y4           0.01634   0.00267  -0.00556  -0.03121  -0.00453
           Z4          -0.00904  -0.00142   0.00297   0.01669  -0.00200
           X5           0.00572   0.00321  -0.00077  -0.00077   0.00813
           Y5          -0.00948  -0.03535   0.00870   0.00962   0.01896
           Z5           0.01694   0.00264  -0.00059  -0.00036   0.03150
                          Y4        Z4        X5        Y5        Z5
           Y4           0.12349
           Z4           0.11770   0.27873
           X5           0.00148  -0.00067   0.34989
           Y5           0.00370  -0.00170   0.01902   0.05989
           Z5           0.00578  -0.00263  -0.08644  -0.00894   0.08621
 ITU=  0
     Eigenvalues ---    0.11043   0.11199   0.12648   0.13575   0.14176
     Eigenvalues ---    0.33631   0.78231   0.80661   0.82346
 Angle between quadratic step and forces=  33.27 degrees.
 Linear search not attempted -- first point.
 B after Tr=    -0.011375    0.000250   -0.004116
         Rot=    1.000000   -0.000002    0.000019    0.000008 Ang=   0.00 deg.
 Variable       Old X    -DE/DX   Delta X   Delta X   Delta X     New X
                                 (Linear)    (Quad)   (Total)
    X1       39.45295   0.00755   0.00000  -0.03990  -0.05147  39.40148
    Y1        4.88957   0.00519   0.00000  -0.00136  -0.00175   4.88782
    Z1        7.15025  -0.00502   0.00000  -0.00901  -0.01162   7.13864
    X2       40.64952  -0.00310   0.00000   0.01499   0.00335  40.65287
    Y2        3.97438   0.00901   0.00000   0.05524   0.05482   4.02920
    Z2        8.62059  -0.01426   0.00000  -0.08802  -0.09059   8.53000
    X3       39.86453   0.00467   0.00000   0.05700   0.04547  39.91000
    Y3        6.92377  -0.01267   0.00000  -0.05305  -0.05345   6.87031
    Z3        6.82293   0.00579   0.00000   0.03438   0.03180   6.85473
    X4       39.48091   0.01097   0.00000   0.10482   0.09331  39.57422
    Y4        3.90824  -0.00218   0.00000  -0.01652  -0.01691   3.89133
    Z4        5.32822   0.00153   0.00000   0.00193  -0.00068   5.32754
    X5       37.52675  -0.02009   0.00000  -0.07907  -0.09066  37.43609
    Y5        4.75780   0.00066   0.00000   0.01766   0.01729   4.77510
    Z5        7.72679   0.01195   0.00000   0.07376   0.07108   7.79787
         Item               Value     Threshold  Converged?
 Maximum Force            0.020087     0.000450     NO 
 RMS     Force            0.009286     0.000300     NO 
 Maximum Displacement     0.093307     0.001800     NO 
 RMS     Displacement     0.053235     0.001200     NO 
 Predicted change in Energy=-3.125485D-03
 GradGradGradGradGradGradGradGradGradGradGradGradGradGradGradGradGradGrad

 1\1\GINC-H11R13\Force\RB3LYP\3-21G*\C1H4\ACKGYDJ0BD\08-Jul-2026\0\\#fo
 rce b3lyp/3-21G* Geom=PrintInputOrient\\Generated by MDDatasetMaker (A
 uthor: Jinzhe Zeng)\\0,1\C,20.8776,2.58745,3.78375\H,21.5108,2.10315,4
 .56182\H,21.0954,3.6639,3.61054\H,20.8924,2.06815,2.81957\H,19.8583,2.
 51772,4.08884\\Version=EM64L-G16RevB.01\State=1-A\HF=-40.2985019\RMSD=
 2.202e-09\RMSF=9.286e-03\Dipole=-0.0475916,-0.0050406,-0.0074144\Quadr
 upole=-0.102341,0.0484667,0.0538744,-0.0076311,0.1322294,-0.0882115\PG
 =C01 [X(C1H4)]\\@


 ... IT CAN BE VERY DIFFICULT, IN THESE COMPLEX TIMES,
 TO UNDERSTAND JUST HOW SCIENTISTS DO WHAT THEY DO.

                     DON MOSER IN THE FEBRUARY 1979 SMITHSONIAN
 Job cpu time:       0 days  0 hours  3 minutes  6.1 seconds.
 Elapsed time:       0 days  0 hours  0 minutes  3.7 seconds.
 File lengths (MBytes):  RWF=      6 Int=      0 D2E=      0 Chk=      1 Scr=      1
 Normal termination of Gaussian 16 at Wed Jul  8 17:32:03 2026.
