 Entering Gaussian System, Link 0=g16
 Input=data_O1_02.gjf
 Output=data_O1_02.log
 Initial command:
 /work/home/ackgydj0bd/apprepo/gaussian/16b.01-none_v1.3/app/g16/l1.exe "/work/home/ackgydj0bd/apprepo/gaussian/16b.01-none_v1.3/app/g16/scratch/Gau-47570.inp" -scrdir="/work/home/ackgydj0bd/apprepo/gaussian/16b.01-none_v1.3/app/g16/scratch/"
 Entering Link 1 = /work/home/ackgydj0bd/apprepo/gaussian/16b.01-none_v1.3/app/g16/l1.exe PID=     47571.
  
 Copyright (c) 1988-2017, Gaussian, Inc.  All Rights Reserved.
  
 This is part of the Gaussian(R) 16 program.  It is based on
 the Gaussian(R) 09 system (copyright 2009, Gaussian, Inc.),
 the Gaussian(R) 03 system (copyright 2003, Gaussian, Inc.),
 the Gaussian(R) 98 system (copyright 1998, Gaussian, Inc.),
 the Gaussian(R) 94 system (copyright 1995, Gaussian, Inc.),
 the Gaussian 92(TM) system (copyright 1992, Gaussian, Inc.),
 the Gaussian 90(TM) system (copyright 1990, Gaussian, Inc.),
 the Gaussian 88(TM) system (copyright 1988, Gaussian, Inc.),
 the Gaussian 86(TM) system (copyright 1986, Carnegie Mellon
 University), and the Gaussian 82(TM) system (copyright 1983,
 Carnegie Mellon University). Gaussian is a federally registered
 trademark of Gaussian, Inc.
  
 This software contains proprietary and confidential information,
 including trade secrets, belonging to Gaussian, Inc.
  
 This software is provided under written license and may be
 used, copied, transmitted, or stored only in accord with that
 written license.
  
 The following legend is applicable only to US Government
 contracts under FAR:
  
                    RESTRICTED RIGHTS LEGEND
  
 Use, reproduction and disclosure by the US Government is
 subject to restrictions as set forth in subparagraphs (a)
 and (c) of the Commercial Computer Software - Restricted
 Rights clause in FAR 52.227-19.
  
 Gaussian, Inc.
 340 Quinnipiac St., Bldg. 40, Wallingford CT 06492
  
  
 ---------------------------------------------------------------
 Warning -- This program may not be used in any manner that
 competes with the business of Gaussian, Inc. or will provide
 assistance to any competitor of Gaussian, Inc.  The licensee
 of this program is prohibited from giving any competitor of
 Gaussian, Inc. access to this program.  By using this program,
 the user acknowledges that Gaussian, Inc. is engaged in the
 business of creating and licensing software in the field of
 computational chemistry and represents and warrants to the
 licensee that it is not a competitor of Gaussian, Inc. and that
 it will not use this program in any manner prohibited above.
 ---------------------------------------------------------------
  

 Cite this work as:
 Gaussian 16, Revision B.01,
 M. J. Frisch, G. W. Trucks, H. B. Schlegel, G. E. Scuseria, 
 M. A. Robb, J. R. Cheeseman, G. Scalmani, V. Barone, 
 G. A. Petersson, H. Nakatsuji, X. Li, M. Caricato, A. V. Marenich, 
 J. Bloino, B. G. Janesko, R. Gomperts, B. Mennucci, H. P. Hratchian, 
 J. V. Ortiz, A. F. Izmaylov, J. L. Sonnenberg, D. Williams-Young, 
 F. Ding, F. Lipparini, F. Egidi, J. Goings, B. Peng, A. Petrone, 
 T. Henderson, D. Ranasinghe, V. G. Zakrzewski, J. Gao, N. Rega, 
 G. Zheng, W. Liang, M. Hada, M. Ehara, K. Toyota, R. Fukuda, 
 J. Hasegawa, M. Ishida, T. Nakajima, Y. Honda, O. Kitao, H. Nakai, 
 T. Vreven, K. Throssell, J. A. Montgomery, Jr., J. E. Peralta, 
 F. Ogliaro, M. J. Bearpark, J. J. Heyd, E. N. Brothers, K. N. Kudin, 
 V. N. Staroverov, T. A. Keith, R. Kobayashi, J. Normand, 
 K. Raghavachari, A. P. Rendell, J. C. Burant, S. S. Iyengar, 
 J. Tomasi, M. Cossi, J. M. Millam, M. Klene, C. Adamo, R. Cammi, 
 J. W. Ochterski, R. L. Martin, K. Morokuma, O. Farkas, 
 J. B. Foresman, and D. J. Fox, Gaussian, Inc., Wallingford CT, 2016.
 
 ******************************************
 Gaussian 16:  EM64L-G16RevB.01 20-Dec-2017
                 8-Jul-2026 
 ******************************************
 %nproc=64
 Will use up to   64 processors via shared memory.
 %mem=128GB
 -----------------------------------------
 #force b3lyp/3-21G* Geom=PrintInputOrient
 -----------------------------------------
 1/10=7,30=1,38=1/1,3;
 2/9=2000,12=2,17=6,18=5,40=1/2;
 3/5=5,7=1,11=2,25=1,30=1,71=1,74=-5/1,2,3;
 4//1;
 5/5=2,38=5/2;
 6/7=2,8=2,9=2,10=2,28=1/1;
 7/29=1/1,2,3,16;
 1/10=7,30=1/3;
 99//99;
 -------------------------------------------------
 Generated by MDDatasetMaker (Author: Jinzhe Zeng)
 -------------------------------------------------
 Symbolic Z-matrix:
 Charge =  0 Multiplicity = 3
 C                     19.6324   22.8313   5.76177 
 H                     18.8591   22.2815   5.22309 
 H                     19.1159   23.2344   6.61574 
 H                     20.3684   22.1574   6.22877 
 H                     20.1368   23.6143   5.16726 
 O                     21.3921   24.4115   3.84365 
 O                     21.1874   23.3325   3.10746 
 

 GradGradGradGradGradGradGradGradGradGradGradGradGradGradGradGradGradGrad
 Berny optimization.
 Initialization pass.
 Trust Radius=3.00D-01 FncErr=1.00D-07 GrdErr=1.00D-07 EigMax=2.50D+02 EigMin=1.00D-04
 Number of steps in this run=      2 maximum allowed number of steps=      2.
 GradGradGradGradGradGradGradGradGradGradGradGradGradGradGradGradGradGrad

                          Input orientation:                          
 ---------------------------------------------------------------------
 Center     Atomic      Atomic             Coordinates (Angstroms)
 Number     Number       Type             X           Y           Z
 ---------------------------------------------------------------------
      1          6           0       19.632400   22.831300    5.761770
      2          1           0       18.859100   22.281500    5.223090
      3          1           0       19.115900   23.234400    6.615740
      4          1           0       20.368400   22.157400    6.228770
      5          1           0       20.136800   23.614300    5.167260
      6          8           0       21.392100   24.411500    3.843650
      7          8           0       21.187400   23.332500    3.107460
 ---------------------------------------------------------------------
                    Distance matrix (angstroms):
                    1          2          3          4          5
     1  C    0.000000
     2  H    1.091077   0.000000
     3  H    1.076349   1.706880   0.000000
     4  H    1.101783   1.817905   1.696594   0.000000
     5  H    1.104966   1.847157   1.812362   1.817416   0.000000
     6  O    3.045121   3.585505   3.775067   3.437692   1.990791
     7  O    3.116823   3.316847   4.075385   3.434268   2.329366
                    6          7
     6  O    0.000000
     7  O    1.322164   0.000000
 Stoichiometry    CH4O2(3)
 Framework group  C1[X(CH4O2)]
 Deg. of freedom    15
 Full point group                 C1      NOp   1
 Largest Abelian subgroup         C1      NOp   1
 Largest concise Abelian subgroup C1      NOp   1
                         Standard orientation:                         
 ---------------------------------------------------------------------
 Center     Atomic      Atomic             Coordinates (Angstroms)
 Number     Number       Type             X           Y           Z
 ---------------------------------------------------------------------
      1          6           0        1.844845    0.016115   -0.005624
      2          1           0        2.043691    0.907139   -0.603107
      3          1           0        2.643207   -0.655801   -0.269582
      4          1           0        2.028195    0.189142    1.066929
      5          1           0        0.847671   -0.431482   -0.167652
      6          8           0       -1.122822   -0.666310   -0.008720
      7          8           0       -1.206156    0.653099    0.009614
 ---------------------------------------------------------------------
 Rotational constants (GHZ):          29.6733297           5.0113909           4.4083231
 Standard basis: 3-21G* (6D, 7F)
 There are    35 symmetry adapted cartesian basis functions of A   symmetry.
 There are    35 symmetry adapted basis functions of A   symmetry.
    35 basis functions,    57 primitive gaussians,    35 cartesian basis functions
    14 alpha electrons       12 beta electrons
       nuclear repulsion energy        66.5289829167 Hartrees.
 NAtoms=    7 NActive=    7 NUniq=    7 SFac= 1.00D+00 NAtFMM=   60 NAOKFM=F Big=F
 Integral buffers will be    131072 words long.
 Raffenetti 2 integral format.
 Two-electron integral symmetry is turned on.
 One-electron integrals computed using PRISM.
 NBasis=    35 RedAO= T EigKep=  3.11D-02  NBF=    35
 NBsUse=    35 1.00D-06 EigRej= -1.00D+00 NBFU=    35
 ExpMin= 1.83D-01 ExpMax= 3.22D+02 ExpMxC= 3.22D+02 IAcc=3 IRadAn=         5 AccDes= 0.00D+00
 Harris functional with IExCor=  402 and IRadAn=       5 diagonalized for initial guess.
 HarFok:  IExCor=  402 AccDes= 0.00D+00 IRadAn=         5 IDoV= 1 UseB2=F ITyADJ=14
 ICtDFT=  3500011 ScaDFX=  1.000000  1.000000  1.000000  1.000000
 FoFCou: FMM=F IPFlag=           0 FMFlag=      100000 FMFlg1=           0
         NFxFlg=           0 DoJE=T BraDBF=F KetDBF=T FulRan=T
         wScrn=  0.000000 ICntrl=       500 IOpCl=  0 I1Cent=   200000004 NGrid=           0
         NMat0=    1 NMatS0=      1 NMatT0=    0 NMatD0=    1 NMtDS0=    0 NMtDT0=    0
 Petite list used in FoFCou.
 Initial guess <Sx>= 0.0000 <Sy>= 0.0000 <Sz>= 1.0000 <S**2>= 2.0000 S= 1.0000
 Keep R1 and R2 ints in memory in canonical form, NReq=55694677.
 Requested convergence on RMS density matrix=1.00D-08 within 128 cycles.
 Requested convergence on MAX density matrix=1.00D-06.
 Requested convergence on             energy=1.00D-06.
 No special actions if energy rises.
 Integral accuracy reduced to 1.0D-05 until final iterations.
 Initial convergence to 1.0D-05 achieved.  Increase integral accuracy.
 SCF Done:  E(UB3LYP) =  -189.779557672     A.U. after   15 cycles
            NFock= 15  Conv=0.16D-08     -V/T= 2.0090
 <Sx>= 0.0000 <Sy>= 0.0000 <Sz>= 1.0000 <S**2>= 2.0047 S= 1.0016
 <L.S>= 0.000000000000E+00
 Annihilation of the first spin contaminant:
 S**2 before annihilation     2.0047,   after     2.0000

 **********************************************************************

            Population analysis using the SCF Density.

 **********************************************************************

 Orbital symmetries:
 Alpha Orbitals:
       Occupied  (A) (A) (A) (A) (A) (A) (A) (A) (A) (A) (A) (A)
                 (A) (A)
       Virtual   (A) (A) (A) (A) (A) (A) (A) (A) (A) (A) (A) (A)
                 (A) (A) (A) (A) (A) (A) (A) (A) (A)
 Beta  Orbitals:
       Occupied  (A) (A) (A) (A) (A) (A) (A) (A) (A) (A) (A) (A)
       Virtual   (A) (A) (A) (A) (A) (A) (A) (A) (A) (A) (A) (A)
                 (A) (A) (A) (A) (A) (A) (A) (A) (A) (A) (A)
 The electronic state is 3-A.
 Alpha  occ. eigenvalues --  -19.20432 -19.20385 -10.09190  -1.24112  -0.85653
 Alpha  occ. eigenvalues --   -0.68688  -0.53080  -0.52343  -0.51364  -0.39117
 Alpha  occ. eigenvalues --   -0.38483  -0.36946  -0.32843  -0.32711
 Alpha virt. eigenvalues --    0.07545   0.15563   0.19474   0.19930   0.23399
 Alpha virt. eigenvalues --    0.69204   0.71636   0.72566   1.02646   1.05415
 Alpha virt. eigenvalues --    1.06330   1.09345   1.25821   1.31443   1.36874
 Alpha virt. eigenvalues --    1.42108   1.45472   1.56531   1.75174   2.34281
 Alpha virt. eigenvalues --    2.71034
  Beta  occ. eigenvalues --  -19.17680 -19.17605 -10.09185  -1.17869  -0.76885
  Beta  occ. eigenvalues --   -0.68630  -0.47782  -0.44061  -0.41703  -0.38829
  Beta  occ. eigenvalues --   -0.36946  -0.36861
  Beta virt. eigenvalues --   -0.13840  -0.13536   0.11937   0.15640   0.19504
  Beta virt. eigenvalues --    0.19945   0.24014   0.69346   0.71672   0.72682
  Beta virt. eigenvalues --    1.02683   1.05602   1.06402   1.09974   1.33163
  Beta virt. eigenvalues --    1.34492   1.42773   1.49131   1.51516   1.58499
  Beta virt. eigenvalues --    1.76038   2.39223   2.76326
          Condensed to atoms (all electrons):
               1          2          3          4          5          6
     1  C    5.373014   0.368130   0.354022   0.365050   0.341242  -0.010720
     2  H    0.368130   0.520900  -0.033945  -0.022751  -0.020302   0.000055
     3  H    0.354022  -0.033945   0.542943  -0.035102  -0.019488   0.000107
     4  H    0.365050  -0.022751  -0.035102   0.532905  -0.023880   0.000042
     5  H    0.341242  -0.020302  -0.019488  -0.023880   0.504819   0.028633
     6  O   -0.010720   0.000055   0.000107   0.000042   0.028633   7.848270
     7  O   -0.000144   0.000062   0.000077   0.000054  -0.002881   0.119010
               7
     1  C   -0.000144
     2  H    0.000062
     3  H    0.000077
     4  H    0.000054
     5  H   -0.002881
     6  O    0.119010
     7  O    7.862605
          Atomic-Atomic Spin Densities.
               1          2          3          4          5          6
     1  C    0.001416  -0.000501   0.002487  -0.000153   0.003027  -0.002804
     2  H   -0.000501   0.001156  -0.000308   0.000055   0.000497   0.000061
     3  H    0.002487  -0.000308  -0.001449  -0.000150  -0.001299  -0.000075
     4  H   -0.000153   0.000055  -0.000150   0.000027   0.000222   0.000041
     5  H    0.003027   0.000497  -0.001299   0.000222  -0.004165   0.000864
     6  O   -0.002804   0.000061  -0.000075   0.000041   0.000864   1.208399
     7  O    0.004055  -0.000141   0.000008  -0.000036  -0.006000  -0.222940
               7
     1  C    0.004055
     2  H   -0.000141
     3  H    0.000008
     4  H   -0.000036
     5  H   -0.006000
     6  O   -0.222940
     7  O    1.240797
 Mulliken charges and spin densities:
               1          2
     1  C   -0.790595   0.007527
     2  H    0.187851   0.000819
     3  H    0.191386  -0.000786
     4  H    0.183682   0.000006
     5  H    0.191855  -0.006854
     6  O    0.014604   0.983546
     7  O    0.021218   1.015742
 Sum of Mulliken charges =   0.00000   2.00000
 Mulliken charges and spin densities with hydrogens summed into heavy atoms:
               1          2
     1  C   -0.035821   0.000712
     6  O    0.014604   0.983546
     7  O    0.021218   1.015742
 Electronic spatial extent (au):  <R**2>=            283.8011
 Charge=              0.0000 electrons
 Dipole moment (field-independent basis, Debye):
    X=             -0.2850    Y=              0.0071    Z=              0.0119  Tot=              0.2854
 Quadrupole moment (field-independent basis, Debye-Ang):
   XX=            -17.5938   YY=            -18.6573   ZZ=            -17.9630
   XY=              0.0948   XZ=              0.0343   YZ=             -0.1707
 Traceless Quadrupole moment (field-independent basis, Debye-Ang):
   XX=              0.4776   YY=             -0.5859   ZZ=              0.1083
   XY=              0.0948   XZ=              0.0343   YZ=             -0.1707
 Octapole moment (field-independent basis, Debye-Ang**2):
  XXX=            -12.4538  YYY=              0.2078  ZZZ=              0.6450  XYY=             -3.7956
  XXY=             -0.1990  XXZ=             -0.0725  XZZ=             -4.0409  YZZ=              0.3009
  YYZ=             -0.4256  XYZ=             -0.3310
 Hexadecapole moment (field-independent basis, Debye-Ang**3):
 XXXX=           -269.6222 YYYY=            -44.4481 ZZZZ=            -20.2097 XXXY=             -1.7429
 XXXZ=             -0.8579 YYYX=              0.1399 YYYZ=             -0.4217 ZZZX=              1.3406
 ZZZY=             -0.0412 XXYY=            -53.2828 XXZZ=            -48.0344 YYZZ=            -11.0018
 XXYZ=             -0.5846 YYXZ=             -0.9607 ZZXY=              0.5906
 N-N= 6.652898291666D+01 E-N=-5.786729079832D+02  KE= 1.880845497872D+02
                          Isotropic Fermi Contact Couplings
        Atom                 a.u.       MegaHertz       Gauss      10(-4) cm-1
     1  C(13)             -0.00109      -0.61103      -0.21803      -0.20382
     2  H(1)               0.00050       1.11881       0.39922       0.37319
     3  H(1)              -0.00018      -0.39194      -0.13985      -0.13074
     4  H(1)               0.00007       0.14952       0.05335       0.04987
     5  H(1)              -0.00011      -0.25639      -0.09149      -0.08552
     6  O(17)              0.15322     -46.44210     -16.57169     -15.49142
     7  O(17)              0.14975     -45.38830     -16.19568     -15.13991
 --------------------------------------------------------
       Center         ----  Spin Dipole Couplings  ----
                      3XX-RR        3YY-RR        3ZZ-RR
 --------------------------------------------------------
     1   Atom        0.019102     -0.006482     -0.012620
     2   Atom        0.011686     -0.005287     -0.006399
     3   Atom        0.009328     -0.004169     -0.005159
     4   Atom        0.011363     -0.006684     -0.004680
     5   Atom        0.051318     -0.021435     -0.029883
     6   Atom        1.002775     -2.040893      1.038118
     7   Atom        1.031770     -2.090339      1.058569
 --------------------------------------------------------
                        XY            XZ            YZ
 --------------------------------------------------------
     1   Atom        0.005117      0.000523      0.000976
     2   Atom        0.004287     -0.003376     -0.001436
     3   Atom       -0.002220     -0.001091      0.000285
     4   Atom        0.001088      0.006102      0.000320
     5   Atom       -0.005047     -0.006420      0.000673
     6   Atom        0.210913      0.014166     -0.045002
     7   Atom        0.216089     -0.005331     -0.045761
 --------------------------------------------------------


 ---------------------------------------------------------------------------------
              Anisotropic Spin Dipole Couplings in Principal Axis System
 ---------------------------------------------------------------------------------

       Atom             a.u.   MegaHertz   Gauss  10(-4) cm-1        Axes

              Baa    -0.0128    -1.714    -0.612    -0.572  0.0096 -0.1609  0.9869
     1 C(13)  Bbb    -0.0073    -0.983    -0.351    -0.328 -0.1907  0.9686  0.1598
              Bcc     0.0201     2.698     0.963     0.900  0.9816  0.1897  0.0214
 
              Baa    -0.0074    -3.946    -1.408    -1.316  0.0380  0.5084  0.8603
     2 H(1)   Bbb    -0.0060    -3.187    -1.137    -1.063 -0.2924  0.8289 -0.4770
              Bcc     0.0134     7.133     2.545     2.379  0.9555  0.2334 -0.1801
 
              Baa    -0.0053    -2.806    -1.001    -0.936  0.0501 -0.1555  0.9866
     3 H(1)   Bbb    -0.0045    -2.406    -0.858    -0.802  0.1679  0.9751  0.1452
              Bcc     0.0098     5.212     1.860     1.738  0.9845 -0.1584 -0.0750
 
              Baa    -0.0068    -3.621    -1.292    -1.208 -0.2516  0.7471  0.6153
     4 H(1)   Bbb    -0.0067    -3.573    -1.275    -1.192 -0.2037 -0.6624  0.7210
              Bcc     0.0135     7.194     2.567     2.400  0.9462  0.0561  0.3188
 
              Baa    -0.0304   -16.218    -5.787    -5.410  0.0763 -0.0319  0.9966
     5 H(1)   Bbb    -0.0218   -11.619    -4.146    -3.876  0.0712  0.9971  0.0264
              Bcc     0.0522    27.837     9.933     9.286  0.9945 -0.0689 -0.0784
 
              Baa    -2.0561   148.779    53.088    49.627 -0.0688  0.9975  0.0148
     6 O(17)  Bbb     1.0127   -73.275   -26.147   -24.442  0.9187  0.0692 -0.3889
              Bcc     1.0435   -75.504   -26.942   -25.185  0.3890  0.0132  0.9211
 
              Baa    -2.1059   152.379    54.373    50.828 -0.0687  0.9975  0.0143
     7 O(17)  Bbb     1.0424   -75.427   -26.914   -25.160  0.8916  0.0549  0.4494
              Bcc     1.0635   -76.952   -27.458   -25.669 -0.4475 -0.0436  0.8932
 

 ---------------------------------------------------------------------------------

 Calling FoFJK, ICntrl=      2127 FMM=F ISym2X=0 I1Cent= 0 IOpClX= 1 NMat=1 NMatS=1 NMatT=0.
 ***** Axes restored to original set *****
 -------------------------------------------------------------------
 Center     Atomic                   Forces (Hartrees/Bohr)
 Number     Number              X              Y              Z
 -------------------------------------------------------------------
      1        6           0.005441544   -0.001380068    0.009891572
      2        1           0.006582829   -0.002899089   -0.009236392
      3        1          -0.006028572    0.015962481    0.008829593
      4        1           0.000176464   -0.002074937   -0.011833934
      5        1          -0.012238189   -0.012746567    0.010567740
      6        8           0.000364808   -0.015803214   -0.017540994
      7        8           0.005701116    0.018941393    0.009322415
 -------------------------------------------------------------------
 Cartesian Forces:  Max     0.018941393 RMS     0.010326953

 GradGradGradGradGradGradGradGradGradGradGradGradGradGradGradGradGradGrad
 Berny optimization.
 Search for a local minimum.
 Step number   1 out of a maximum of    2
 All quantities printed in internal units (Hartrees-Bohrs-Radians)
 Second derivative matrix not updated -- first step.
 ITU=  0
     Eigenvalues ---    0.00000   0.00000   0.00000   0.00000   0.00000
     Eigenvalues ---    0.10904   0.11314   0.12908   0.13645   0.14634
     Eigenvalues ---    0.34212   0.77841   0.82998   0.92931   1.22791
 Eigenvalue     1 is  -1.11D-16 should be greater than     0.000000 Eigenvector:
                          Z6        Z7        Z4        Z2        Z1
   1                    0.33530   0.28695  -0.27289  -0.27289  -0.27289
                          Z3        Z5        X6        X7        X4
   1                   -0.27289  -0.27289  -0.24620  -0.20928   0.19975
 Eigenvalue     2 is   4.44D-16 Eigenvector:
                          Z7        Z6        X6        Y6        X7
   1                    0.57344  -0.39414   0.38504   0.37355  -0.35375
                          Y7        Y2        Y5        Y1        Y4
   1                   -0.14646  -0.09959  -0.09959  -0.09959  -0.09959
 Eigenvalue     3 is   2.87D-07 Eigenvector:
                          X3        X2        Y4        X7        Y2
   1                    0.39794  -0.39438  -0.33186   0.31491   0.30473
                          Z4        X6        Z2        Z3        Y5
   1                   -0.30202  -0.28435   0.18099   0.17080  -0.16691
 Eigenvalue     4 is   9.85D-07 Eigenvector:
                          Z5        Y5        Y3        Z2        Y2
   1                    0.52705   0.37856  -0.37058  -0.36826   0.32002
                          Z4        Z3        Y7        Z6        Y4
   1                   -0.16055   0.15442  -0.15115  -0.14760  -0.14694
 Eigenvalue     5 is   2.18D-06 Eigenvector:
                          X5        Z4        X4        Y5        Y3
   1                    0.57486   0.42447  -0.32085  -0.31473   0.25163
                          Z3        Y4        Z2        X6        Y2
   1                   -0.23397  -0.22313  -0.18380  -0.11887   0.11606
 Quadratic step=8.773D+01 exceeds max=3.000D-01 adjusted using Lamda=-3.764D-02.
 Angle between NR and scaled steps=  39.22 degrees.
 Angle between quadratic step and forces=  51.16 degrees.
 Linear search not attempted -- first point.
 B after Tr=    -0.023761    0.016664    0.117354
         Rot=    0.999999    0.001215   -0.000373    0.000380 Ang=   0.15 deg.
 Variable       Old X    -DE/DX   Delta X   Delta X   Delta X     New X
                                 (Linear)    (Quad)   (Total)
    X1       37.09986   0.00544   0.00000  -0.06075  -0.04361  37.05625
    Y1       43.14490  -0.00138   0.00000  -0.03326  -0.01821  43.12670
    Z1       10.88817   0.00989   0.00000   0.10336   0.08834  10.97651
    X2       35.63853   0.00658   0.00000   0.02466   0.04016  35.67869
    Y2       42.10593  -0.00290   0.00000  -0.04256  -0.02923  42.07670
    Z2        9.87021  -0.00924   0.00000  -0.01686  -0.02831   9.84190
    X3       36.12382  -0.00603   0.00000  -0.07401  -0.05503  36.06878
    Y3       43.90665   0.01596   0.00000   0.04621   0.06592  43.97257
    Z3       12.50194   0.00883   0.00000   0.09681   0.08047  12.58241
    X4       38.49070   0.00018   0.00000  -0.01504   0.00167  38.49237
    Y4       41.87142  -0.00207   0.00000  -0.05879  -0.04302  41.82840
    Z4       11.77067  -0.01183   0.00000  -0.03356  -0.04650  11.72417
    X5       38.05304  -0.01224   0.00000  -0.10308  -0.08567  37.96737
    Y5       44.62456  -0.01275   0.00000  -0.05988  -0.04822  44.57634
    Z5        9.76471   0.01057   0.00000   0.11738   0.09815   9.86286
    X6       40.42521   0.00036   0.00000   0.07097   0.08757  40.51278
    Y6       46.13105  -0.01580   0.00000   0.03461   0.03770  46.16875
    Z6        7.26345  -0.01754   0.00000  -0.10904  -0.13404   7.12940
    X7       40.03838   0.00570   0.00000   0.04085   0.05491  40.09330
    Y7       44.09203   0.01894   0.00000   0.03486   0.03506  44.12710
    Z7        5.87225   0.00932   0.00000  -0.03838  -0.05812   5.81413
         Item               Value     Threshold  Converged?
 Maximum Force            0.018941     0.000450     NO 
 RMS     Force            0.010327     0.000300     NO 
 Maximum Displacement     0.134042     0.001800     NO 
 RMS     Displacement     0.063676     0.001200     NO 
 Predicted change in Energy=-6.168395D-03
 GradGradGradGradGradGradGradGradGradGradGradGradGradGradGradGradGradGrad

 1\1\GINC-H11R13\Force\UB3LYP\3-21G*\C1H4O2(3)\ACKGYDJ0BD\08-Jul-2026\0
 \\#force b3lyp/3-21G* Geom=PrintInputOrient\\Generated by MDDatasetMak
 er (Author: Jinzhe Zeng)\\0,3\C,19.6324,22.8313,5.76177\H,18.8591,22.2
 815,5.22309\H,19.1159,23.2344,6.61574\H,20.3684,22.1574,6.22877\H,20.1
 368,23.6143,5.16726\O,21.3921,24.4115,3.84365\O,21.1874,23.3325,3.1074
 6\\Version=EM64L-G16RevB.01\State=3-A\HF=-189.7795577\S2=2.004684\S2-1
 =0.\S2A=2.000011\RMSD=1.617e-09\RMSF=1.033e-02\Dipole=0.0646462,0.0338
 186,-0.0853436\Quadrupole=0.1762683,-0.2906197,0.1143514,0.0755291,-0.
 0858779,-0.3248554\PG=C01 [X(C1H4O2)]\\@


 THOUGH I SPEAK WITH THE TONGUES OF MEN AND OF ANGELS, 
 AND HAVE NOT LOVE,
 I AM BECOME AS SOUNDING BRASS, A TINKLING CYMBAL.
 AND THOUGH I HAVE THE GIFT OF PROPHECY,
 AND UNDERSTAND ALL MYSTERIES, AND ALL KNOWLEDGE.
 AND THOUGH I HAVE ALL FAITH, SO THAT I COULD REMOVE MOUNTAINS,
 AND HAVE NOT LOVE, I AM NOTHING.
 AND THOUGH I BESTOW ALL MY GOODS TO FEED THE POOR,
 AND THOUGH I GIVE MY BODY TO BE BURNED,
 AND HAVE NOT LOVE IT PROFITETH ME NOTHING.
 LOVE SUFFERETH LONG, AND IS KIND,
 LOVE ENVIETH NOT,
 LOVE VAUNTETH NOT ITSELF, IS NOT PUFFED UP,
 DOTH NOT BEHAVE ITSELF UNSEEMLY, SEEKETH NOT HER OWN,
 IS NOT EASILY PROVOKED, THINKETH NO EVIL,
 REJOICETH NOT IN INIQUITY, BUT REJOICETH IN THE TRUTH,
 BEARETH ALL THINGS, BELIEVETH ALL THINGS,
 HOPETH ALL THINGS, ENDURETH ALL THINGS.
 LOVE NEVER FAILETH, BUT WHETHER THERE BE PROPHECIES, THEY SHALL FAIL, 
 WHETHER THERE BE TONGUES, THEY SHALL CEASE,
 WHETHER THERE BE KNOWLEDGE, IT SHALL VANISH AWAY.
 FOR WE KNOW IN PART, AND WE PROPHESY IN PART.
 BUT WHEN THAT WHICH IS PERFECT IS COME, THEN THAT WHICH IS IN PART 
 SHALL BE DONE AWAY. 
 WHEN I WAS A CHILD, I SPAKE AS A CHILD, I UNDERSTOOD AS A CHILD, 
 I THOUGHT AS A CHILD.
 BUT WHEN I BECAME A MAN, I PUT AWAY CHILDISH THINGS.
 FOR NOW WE SEE THROUGH A GLASS, DARKLY, BUT THEN FACE TO FACE.
 NOW I KNOW IN PART. BUT THEN SHALL I KNOW EVEN AS ALSO I AM KNOWN.
 AND NOW ABIDETH FAITH, HOPE AND LOVE, THESE THREE.
 BUT THE GREATEST OF THESE IS LOVE.

                     I CORINTHIANS 13
 Job cpu time:       0 days  0 hours  2 minutes 53.3 seconds.
 Elapsed time:       0 days  0 hours  0 minutes  3.5 seconds.
 File lengths (MBytes):  RWF=      6 Int=      0 D2E=      0 Chk=      1 Scr=      1
 Normal termination of Gaussian 16 at Wed Jul  8 17:32:43 2026.
