 Entering Gaussian System, Link 0=g16
 Input=data_C1111_00.gjf
 Output=data_C1111_00.log
 Initial command:
 /work/home/ackgydj0bd/apprepo/gaussian/16b.01-none_v1.3/app/g16/l1.exe "/work/home/ackgydj0bd/apprepo/gaussian/16b.01-none_v1.3/app/g16/scratch/Gau-23912.inp" -scrdir="/work/home/ackgydj0bd/apprepo/gaussian/16b.01-none_v1.3/app/g16/scratch/"
 Entering Link 1 = /work/home/ackgydj0bd/apprepo/gaussian/16b.01-none_v1.3/app/g16/l1.exe PID=     23913.
  
 Copyright (c) 1988-2017, Gaussian, Inc.  All Rights Reserved.
  
 This is part of the Gaussian(R) 16 program.  It is based on
 the Gaussian(R) 09 system (copyright 2009, Gaussian, Inc.),
 the Gaussian(R) 03 system (copyright 2003, Gaussian, Inc.),
 the Gaussian(R) 98 system (copyright 1998, Gaussian, Inc.),
 the Gaussian(R) 94 system (copyright 1995, Gaussian, Inc.),
 the Gaussian 92(TM) system (copyright 1992, Gaussian, Inc.),
 the Gaussian 90(TM) system (copyright 1990, Gaussian, Inc.),
 the Gaussian 88(TM) system (copyright 1988, Gaussian, Inc.),
 the Gaussian 86(TM) system (copyright 1986, Carnegie Mellon
 University), and the Gaussian 82(TM) system (copyright 1983,
 Carnegie Mellon University). Gaussian is a federally registered
 trademark of Gaussian, Inc.
  
 This software contains proprietary and confidential information,
 including trade secrets, belonging to Gaussian, Inc.
  
 This software is provided under written license and may be
 used, copied, transmitted, or stored only in accord with that
 written license.
  
 The following legend is applicable only to US Government
 contracts under FAR:
  
                    RESTRICTED RIGHTS LEGEND
  
 Use, reproduction and disclosure by the US Government is
 subject to restrictions as set forth in subparagraphs (a)
 and (c) of the Commercial Computer Software - Restricted
 Rights clause in FAR 52.227-19.
  
 Gaussian, Inc.
 340 Quinnipiac St., Bldg. 40, Wallingford CT 06492
  
  
 ---------------------------------------------------------------
 Warning -- This program may not be used in any manner that
 competes with the business of Gaussian, Inc. or will provide
 assistance to any competitor of Gaussian, Inc.  The licensee
 of this program is prohibited from giving any competitor of
 Gaussian, Inc. access to this program.  By using this program,
 the user acknowledges that Gaussian, Inc. is engaged in the
 business of creating and licensing software in the field of
 computational chemistry and represents and warrants to the
 licensee that it is not a competitor of Gaussian, Inc. and that
 it will not use this program in any manner prohibited above.
 ---------------------------------------------------------------
  

 Cite this work as:
 Gaussian 16, Revision B.01,
 M. J. Frisch, G. W. Trucks, H. B. Schlegel, G. E. Scuseria, 
 M. A. Robb, J. R. Cheeseman, G. Scalmani, V. Barone, 
 G. A. Petersson, H. Nakatsuji, X. Li, M. Caricato, A. V. Marenich, 
 J. Bloino, B. G. Janesko, R. Gomperts, B. Mennucci, H. P. Hratchian, 
 J. V. Ortiz, A. F. Izmaylov, J. L. Sonnenberg, D. Williams-Young, 
 F. Ding, F. Lipparini, F. Egidi, J. Goings, B. Peng, A. Petrone, 
 T. Henderson, D. Ranasinghe, V. G. Zakrzewski, J. Gao, N. Rega, 
 G. Zheng, W. Liang, M. Hada, M. Ehara, K. Toyota, R. Fukuda, 
 J. Hasegawa, M. Ishida, T. Nakajima, Y. Honda, O. Kitao, H. Nakai, 
 T. Vreven, K. Throssell, J. A. Montgomery, Jr., J. E. Peralta, 
 F. Ogliaro, M. J. Bearpark, J. J. Heyd, E. N. Brothers, K. N. Kudin, 
 V. N. Staroverov, T. A. Keith, R. Kobayashi, J. Normand, 
 K. Raghavachari, A. P. Rendell, J. C. Burant, S. S. Iyengar, 
 J. Tomasi, M. Cossi, J. M. Millam, M. Klene, C. Adamo, R. Cammi, 
 J. W. Ochterski, R. L. Martin, K. Morokuma, O. Farkas, 
 J. B. Foresman, and D. J. Fox, Gaussian, Inc., Wallingford CT, 2016.
 
 ******************************************
 Gaussian 16:  EM64L-G16RevB.01 20-Dec-2017
                 8-Jul-2026 
 ******************************************
 %nproc=64
 Will use up to   64 processors via shared memory.
 %mem=128GB
 -----------------------------------------
 #force b3lyp/3-21G* Geom=PrintInputOrient
 -----------------------------------------
 1/10=7,30=1,38=1/1,3;
 2/9=2000,12=2,17=6,18=5,40=1/2;
 3/5=5,7=1,11=2,25=1,30=1,71=1,74=-5/1,2,3;
 4//1;
 5/5=2,38=5/2;
 6/7=2,8=2,9=2,10=2,28=1/1;
 7/29=1/1,2,3,16;
 1/10=7,30=1/3;
 99//99;
 -------------------------------------------------
 Generated by MDDatasetMaker (Author: Jinzhe Zeng)
 -------------------------------------------------
 Symbolic Z-matrix:
 Charge =  0 Multiplicity = 1
 C                     24.199    3.922     21.738 
 H                     25.094    4.341     22.15 
 H                     24.083    2.916     22.086 
 H                     23.357    4.505     22.048 
 H                     24.262    3.926     20.67 
 

 GradGradGradGradGradGradGradGradGradGradGradGradGradGradGradGradGradGrad
 Berny optimization.
 Initialization pass.
 Trust Radius=3.00D-01 FncErr=1.00D-07 GrdErr=1.00D-07 EigMax=2.50D+02 EigMin=1.00D-04
 Number of steps in this run=      2 maximum allowed number of steps=      2.
 GradGradGradGradGradGradGradGradGradGradGradGradGradGradGradGradGradGrad

                          Input orientation:                          
 ---------------------------------------------------------------------
 Center     Atomic      Atomic             Coordinates (Angstroms)
 Number     Number       Type             X           Y           Z
 ---------------------------------------------------------------------
      1          6           0       24.199000    3.922000   21.738000
      2          1           0       25.094000    4.341000   22.150000
      3          1           0       24.083000    2.916000   22.086000
      4          1           0       23.357000    4.505000   22.048000
      5          1           0       24.262000    3.926000   20.670000
 ---------------------------------------------------------------------
                    Distance matrix (angstroms):
                    1          2          3          4          5
     1  C    0.000000
     2  H    1.070668   0.000000
     3  H    1.070792   1.748383   0.000000
     4  H    1.070025   1.747704   1.747410   0.000000
     5  H    1.069864   1.747813   1.748484   1.747327   0.000000
 Stoichiometry    CH4
 Framework group  C1[X(CH4)]
 Deg. of freedom     9
 Full point group                 C1      NOp   1
 Largest Abelian subgroup         C1      NOp   1
 Largest concise Abelian subgroup C1      NOp   1
                         Standard orientation:                         
 ---------------------------------------------------------------------
 Center     Atomic      Atomic             Coordinates (Angstroms)
 Number     Number       Type             X           Y           Z
 ---------------------------------------------------------------------
      1          6           0       -0.000101   -0.000145   -0.000093
      2          1           0       -0.523517    0.933848   -0.004882
      3          1           0        0.951788    0.121913   -0.475072
      4          1           0        0.144990   -0.322217    1.009942
      5          1           0       -0.572655   -0.732671   -0.529429
 ---------------------------------------------------------------------
 Rotational constants (GHZ):         164.2198064         164.1466027         164.0622543
 Standard basis: 3-21G* (6D, 7F)
 There are    17 symmetry adapted cartesian basis functions of A   symmetry.
 There are    17 symmetry adapted basis functions of A   symmetry.
    17 basis functions,    27 primitive gaussians,    17 cartesian basis functions
     5 alpha electrons        5 beta electrons
       nuclear repulsion energy        13.6822074020 Hartrees.
 NAtoms=    5 NActive=    5 NUniq=    5 SFac= 1.00D+00 NAtFMM=   60 NAOKFM=F Big=F
 Integral buffers will be    131072 words long.
 Raffenetti 2 integral format.
 Two-electron integral symmetry is turned on.
 One-electron integrals computed using PRISM.
 NBasis=    17 RedAO= T EigKep=  3.16D-02  NBF=    17
 NBsUse=    17 1.00D-06 EigRej= -1.00D+00 NBFU=    17
 ExpMin= 1.83D-01 ExpMax= 1.72D+02 ExpMxC= 1.72D+02 IAcc=3 IRadAn=         5 AccDes= 0.00D+00
 Harris functional with IExCor=  402 and IRadAn=       5 diagonalized for initial guess.
 HarFok:  IExCor=  402 AccDes= 0.00D+00 IRadAn=         5 IDoV= 1 UseB2=F ITyADJ=14
 ICtDFT=  3500011 ScaDFX=  1.000000  1.000000  1.000000  1.000000
 FoFCou: FMM=F IPFlag=           0 FMFlag=      100000 FMFlg1=           0
         NFxFlg=           0 DoJE=T BraDBF=F KetDBF=T FulRan=T
         wScrn=  0.000000 ICntrl=       500 IOpCl=  0 I1Cent=   200000004 NGrid=           0
         NMat0=    1 NMatS0=      1 NMatT0=    0 NMatD0=    1 NMtDS0=    0 NMtDT0=    0
 Petite list used in FoFCou.
 Keep R1 ints in memory in canonical form, NReq=55236554.
 Requested convergence on RMS density matrix=1.00D-08 within 128 cycles.
 Requested convergence on MAX density matrix=1.00D-06.
 Requested convergence on             energy=1.00D-06.
 No special actions if energy rises.
 Integral accuracy reduced to 1.0D-05 until final iterations.
 Initial convergence to 1.0D-05 achieved.  Increase integral accuracy.
 SCF Done:  E(RB3LYP) =  -40.3002026067     A.U. after    9 cycles
            NFock=  9  Conv=0.19D-08     -V/T= 2.0076

 **********************************************************************

            Population analysis using the SCF Density.

 **********************************************************************

 Orbital symmetries:
       Occupied  (A) (A) (A) (A) (A)
       Virtual   (A) (A) (A) (A) (A) (A) (A) (A) (A) (A) (A) (A)
 The electronic state is 1-A.
 Alpha  occ. eigenvalues --  -10.09029  -0.69696  -0.39302  -0.39281  -0.39271
 Alpha virt. eigenvalues --    0.15261   0.20172   0.20186   0.20204   0.69605
 Alpha virt. eigenvalues --    0.69627   0.69650   1.05698   1.07433   1.07465
 Alpha virt. eigenvalues --    1.07504   1.70653
          Condensed to atoms (all electrons):
               1          2          3          4          5
     1  C    5.301539   0.370408   0.370414   0.370410   0.370509
     2  H    0.370408   0.514095  -0.026718  -0.026755  -0.026748
     3  H    0.370414  -0.026718   0.514097  -0.026801  -0.026673
     4  H    0.370410  -0.026755  -0.026801   0.514000  -0.026770
     5  H    0.370509  -0.026748  -0.026673  -0.026770   0.513718
 Mulliken charges:
               1
     1  C   -0.783279
     2  H    0.195718
     3  H    0.195680
     4  H    0.195917
     5  H    0.195964
 Sum of Mulliken charges =   0.00000
 Mulliken charges with hydrogens summed into heavy atoms:
               1
     1  C    0.000000
 Electronic spatial extent (au):  <R**2>=             34.6424
 Charge=              0.0000 electrons
 Dipole moment (field-independent basis, Debye):
    X=              0.0000    Y=             -0.0002    Z=              0.0008  Tot=              0.0008
 Quadrupole moment (field-independent basis, Debye-Ang):
   XX=             -8.1933   YY=             -8.1947   ZZ=             -8.1965
   XY=              0.0007   XZ=              0.0009   YZ=              0.0004
 Traceless Quadrupole moment (field-independent basis, Debye-Ang):
   XX=              0.0015   YY=              0.0001   ZZ=             -0.0016
   XY=              0.0007   XZ=              0.0009   YZ=              0.0004
 Octapole moment (field-independent basis, Debye-Ang**2):
  XXX=              0.3863  YYY=              0.2801  ZZZ=              0.5626  XYY=             -0.5332
  XXY=              0.0857  XXZ=             -0.4229  XZZ=              0.1460  YZZ=             -0.3675
  YYZ=             -0.1378  XYZ=             -0.2337
 Hexadecapole moment (field-independent basis, Debye-Ang**3):
 XXXX=            -14.3043 YYYY=            -14.2381 ZZZZ=            -14.1135 XXXY=              0.1172
 XXXZ=             -0.3271 YYYX=             -0.2178 YYYZ=              0.1827 ZZZX=              0.1439
 ZZZY=             -0.2528 XXYY=             -4.6639 XXZZ=             -4.7840 YYZZ=             -4.8454
 XXYZ=              0.0717 YYXZ=              0.1868 ZZXY=              0.1037
 N-N= 1.368220740196D+01 E-N=-1.200031081026D+02  KE= 3.999732785002D+01
 Calling FoFJK, ICntrl=      2127 FMM=F ISym2X=0 I1Cent= 0 IOpClX= 0 NMat=1 NMatS=1 NMatT=0.
 ***** Axes restored to original set *****
 -------------------------------------------------------------------
 Center     Atomic                   Forces (Hartrees/Bohr)
 Number     Number              X              Y              Z
 -------------------------------------------------------------------
      1        6           0.000268088   -0.000283631    0.000564699
      2        1           0.013524775    0.006312835    0.006211850
      3        1          -0.001682357   -0.015134531    0.005128975
      4        1          -0.013094861    0.009116017    0.004794332
      5        1           0.000984355   -0.000010690   -0.016699856
 -------------------------------------------------------------------
 Cartesian Forces:  Max     0.016699856 RMS     0.008475209

 GradGradGradGradGradGradGradGradGradGradGradGradGradGradGradGradGradGrad
 Berny optimization.
 Search for a local minimum.
 Step number   1 out of a maximum of    2
 All quantities printed in internal units (Hartrees-Bohrs-Radians)
 Second derivative matrix not updated -- first step.
 The second derivative matrix:
                          X1        Y1        Z1        X2        Y2
           X1           0.70744
           Y1          -0.00016   0.70700
           Z1          -0.00029  -0.00006   0.70851
           X2          -0.28344  -0.09557  -0.09393   0.27735
           Y2          -0.09561  -0.12408  -0.04397   0.10221   0.10689
           Z2          -0.09396  -0.04397  -0.12270   0.10047   0.04702
           X3          -0.08273  -0.02975   0.01028   0.00613  -0.02864
           Y3          -0.02972  -0.33704   0.08911   0.00051  -0.00275
           Z3           0.01027   0.08914  -0.11028   0.00352  -0.01749
           X4          -0.26074   0.12557   0.06675  -0.01288   0.01714
           Y4           0.12558  -0.16634  -0.04621  -0.01284   0.01723
           Z4           0.06675  -0.04621  -0.10408  -0.01084   0.01414
           X5          -0.08052  -0.00008   0.01719   0.01284   0.00490
           Y5          -0.00009  -0.07954   0.00113   0.00568   0.00271
           Z5           0.01722   0.00109  -0.37145   0.00078   0.00030
                          Z2        X3        Y3        Z3        X4
           Z2           0.10538
           X3           0.01581   0.06270
           Y3           0.00169   0.03178   0.33466
           Z3           0.01014  -0.01099  -0.09532   0.09207
           X4           0.01055   0.01354  -0.00374  -0.00631   0.25302
           Y4           0.01036   0.02759  -0.00776  -0.01322  -0.13426
           Z4           0.00918  -0.01512   0.00441   0.00772  -0.07139
           X5          -0.03288   0.00036   0.00117   0.00351   0.00706
           Y5          -0.01510  -0.00098   0.01288   0.03689  -0.00470
           Z5          -0.00200   0.00002   0.00012   0.00035   0.00040
                          Y4        Z4        X5        Y5        Z5
           Y4           0.15209
           Z4           0.04941   0.08546
           X5          -0.00608   0.03059   0.06026
           Y5           0.00478  -0.02175   0.00009   0.05918
           Z5          -0.00034   0.00172  -0.01842  -0.00117   0.37138
 ITU=  0
     Eigenvalues ---    0.11731   0.11735   0.14134   0.14142   0.14147
     Eigenvalues ---    0.37187   0.86782   0.86872   0.87006
 Angle between quadratic step and forces=   1.22 degrees.
 Linear search not attempted -- first point.
 B after Tr=    -0.000008    0.000008    0.000124
         Rot=    1.000000    0.000000    0.000000    0.000000 Ang=   0.00 deg.
 Variable       Old X    -DE/DX   Delta X   Delta X   Delta X     New X
                                 (Linear)    (Quad)   (Total)
    X1       45.72948   0.00027   0.00000  -0.00003  -0.00003  45.72945
    Y1        7.41151  -0.00028   0.00000   0.00003   0.00003   7.41154
    Z1       41.07887   0.00056   0.00000   0.00043   0.00055  41.07942
    X2       47.42079   0.01352   0.00000   0.03659   0.03659  47.45737
    Y2        8.20330   0.00631   0.00000   0.01682   0.01682   8.22012
    Z2       41.85743   0.00621   0.00000   0.01690   0.01703  41.87446
    X3       45.51027  -0.00168   0.00000  -0.00409  -0.00409  45.50618
    Y3        5.51044  -0.01513   0.00000  -0.04105  -0.04104   5.46940
    Z3       41.73649   0.00513   0.00000   0.01348   0.01360  41.75009
    X4       44.13833  -0.01309   0.00000  -0.03517  -0.03518  44.10316
    Y4        8.51322   0.00912   0.00000   0.02473   0.02474   8.53796
    Z4       41.66468   0.00479   0.00000   0.01298   0.01310  41.67778
    X5       45.84854   0.00098   0.00000   0.00273   0.00272  45.85126
    Y5        7.41906  -0.00001   0.00000  -0.00056  -0.00056   7.41851
    Z5       39.06064  -0.01670   0.00000  -0.04440  -0.04428  39.01636
         Item               Value     Threshold  Converged?
 Maximum Force            0.016700     0.000450     NO 
 RMS     Force            0.008475     0.000300     NO 
 Maximum Displacement     0.044280     0.001800     NO 
 RMS     Displacement     0.022786     0.001200     NO 
 Predicted change in Energy=-1.448042D-03
 GradGradGradGradGradGradGradGradGradGradGradGradGradGradGradGradGradGrad

 1\1\GINC-H11R13\Force\RB3LYP\3-21G*\C1H4\ACKGYDJ0BD\08-Jul-2026\0\\#fo
 rce b3lyp/3-21G* Geom=PrintInputOrient\\Generated by MDDatasetMaker (A
 uthor: Jinzhe Zeng)\\0,1\C,24.199,3.922,21.738\H,25.094,4.341,22.15\H,
 24.083,2.916,22.086\H,23.357,4.505,22.048\H,24.262,3.926,20.67\\Versio
 n=EM64L-G16RevB.01\State=1-A\HF=-40.3002026\RMSD=1.877e-09\RMSF=8.475e
 -03\Dipole=-0.0001998,0.0002107,0.0000845\Quadrupole=-0.0002619,-0.000
 7138,0.0009757,0.0007237,-0.0002752,-0.0009231\PG=C01 [X(C1H4)]\\@


 IT IS A PROFOUNDLY ERRONEOUS TRUISM ... THAT WE SHOULD CULTIVATE
 THE HABIT OF THINKING OF WHAT WE ARE DOING.
 THE PRECISE OPPOSITE IS THE CASE.
 CIVILIZATION ADVANCES BY EXTENDING THE NUMBER OF IMPORTANT OPERATIONS
 WHICH WE CAN PERFORM WITHOUT THINKING ABOUT THEM.

                                    -- ALFRED NORTH WHITEHEAD
 Job cpu time:       0 days  0 hours  2 minutes 36.2 seconds.
 Elapsed time:       0 days  0 hours  0 minutes  3.2 seconds.
 File lengths (MBytes):  RWF=      6 Int=      0 D2E=      0 Chk=      1 Scr=      1
 Normal termination of Gaussian 16 at Wed Jul  8 17:31:24 2026.
